# vtk DataFile Version 3.0
Arquivo gerado por PZ
ASCII

DATASET UNSTRUCTURED_GRID
POINTS 15376 float
0.1 0 0
0.0998717 0.00506492 0
0.104633 0 0
0.104499 0.00529958 0
0.104633 0 0
0.104499 0.00529958 0
0.110077 0 0
0.109936 0.0055753 0
0.110077 0 0
0.109936 0.0055753 0
0.116473 0 0
0.116324 0.00589928 0
0.116473 0 0
0.116324 0.00589928 0
0.123989 0 0
0.12383 0.00627995 0
0.123989 0 0
0.12383 0.00627995 0
0.13282 0 0
0.13265 0.00672725 0
0.13282 0 0
0.13265 0.00672725 0
0.143197 0 0
0.143013 0.00725281 0
0.143197 0 0
0.143013 0.00725281 0
0.15539 0 0
0.15519 0.00787036 0
0.15539 0 0
0.15519 0.00787036 0
0.169716 0 0
0.169498 0.00859597 0
0.169716 0 0
0.169498 0.00859597 0
0.186549 0 0
0.18631 0.00944856 0
0.186549 0 0
0.18631 0.00944856 0
0.206328 0 0
0.206064 0.0104504 0
0.206328 0 0
0.206064 0.0104504 0
0.229569 0 0
0.229274 0.0116275 0
0.229569 0 0
0.229274 0.0116275 0
0.256876 0 0
0.256547 0.0130106 0
0.256876 0 0
0.256547 0.0130106 0
0.288963 0 0
0.288592 0.0146357 0
0.288963 0 0
0.288592 0.0146357 0
0.326664 0 0
0.326245 0.0165453 0
0.326664 0 0
0.326245 0.0165453 0
0.370964 0 0
0.370488 0.018789 0
0.370964 0 0
0.370488 0.018789 0
0.423015 0 0
0.422473 0.0214254 0
0.423015 0 0
0.422473 0.0214254 0
0.484176 0 0
0.483555 0.0245231 0
0.484176 0 0
0.483555 0.0245231 0
0.55604 0 0
0.555326 0.028163 0
0.55604 0 0
0.555326 0.028163 0
0.64048 0 0
0.639658 0.0324398 0
0.64048 0 0
0.639658 0.0324398 0
0.739697 0 0
0.738748 0.0374651 0
0.739697 0 0
0.738748 0.0374651 0
0.856277 0 0
0.855178 0.0433697 0
0.856277 0 0
0.855178 0.0433697 0
0.993259 0 0
0.991984 0.0503077 0
0.993259 0 0
0.991984 0.0503077 0
1.15421 0 0
1.15273 0.0584599 0
1.15421 0 0
1.15273 0.0584599 0
1.34333 0 0
1.34161 0.0680387 0
1.34333 0 0
1.34161 0.0680387 0
1.56555 0 0
1.56354 0.0792937 0
1.56555 0 0
1.56354 0.0792937 0
1.82665 0 0
1.82431 0.0925184 0
1.82665 0 0
1.82431 0.0925184 0
2.13345 0 0
2.13071 0.108057 0
2.13345 0 0
2.13071 0.108057 0
2.49394 0 0
2.49074 0.126316 0
2.49394 0 0
2.49074 0.126316 0
2.91751 0 0
2.91376 0.147769 0
2.91751 0 0
2.91376 0.147769 0
3.41521 0 0
3.41082 0.172977 0
3.41521 0 0
3.41082 0.172977 0
4 0 0
3.99487 0.202597 0
0.0998717 0.00506492 0
0.0994869 0.0101168 0
0.104499 0.00529958 0
0.104096 0.0105856 0
0.104499 0.00529958 0
0.104096 0.0105856 0
0.109936 0.0055753 0
0.109512 0.0111363 0
0.109936 0.0055753 0
0.109512 0.0111363 0
0.116324 0.00589928 0
0.115876 0.0117834 0
0.116324 0.00589928 0
0.115876 0.0117834 0
0.12383 0.00627995 0
0.123353 0.0125438 0
0.12383 0.00627995 0
0.123353 0.0125438 0
0.13265 0.00672725 0
0.132139 0.0134372 0
0.13265 0.00672725 0
0.132139 0.0134372 0
0.143013 0.00725281 0
0.142462 0.014487 0
0.143013 0.00725281 0
0.142462 0.014487 0
0.15519 0.00787036 0
0.154592 0.0157205 0
0.15519 0.00787036 0
0.154592 0.0157205 0
0.169498 0.00859597 0
0.168845 0.0171699 0
0.169498 0.00859597 0
0.168845 0.0171699 0
0.18631 0.00944856 0
0.185592 0.0188729 0
0.18631 0.00944856 0
0.185592 0.0188729 0
0.206064 0.0104504 0
0.20527 0.0208739 0
0.206064 0.0104504 0
0.20527 0.0208739 0
0.229274 0.0116275 0
0.228391 0.0232251 0
0.229274 0.0116275 0
0.228391 0.0232251 0
0.256547 0.0130106 0
0.255559 0.0259878 0
0.256547 0.0130106 0
0.255559 0.0259878 0
0.288592 0.0146357 0
0.28748 0.0292339 0
0.288592 0.0146357 0
0.28748 0.0292339 0
0.326245 0.0165453 0
0.324988 0.0330481 0
0.326245 0.0165453 0
0.324988 0.0330481 0
0.370488 0.018789 0
0.36906 0.0375298 0
0.370488 0.018789 0
0.36906 0.0375298 0
0.422473 0.0214254 0
0.420845 0.0427958 0
0.422473 0.0214254 0
0.420845 0.0427958 0
0.483555 0.0245231 0
0.481692 0.0489833 0
0.483555 0.0245231 0
0.481692 0.0489833 0
0.555326 0.028163 0
0.553187 0.0562536 0
0.555326 0.028163 0
0.553187 0.0562536 0
0.639658 0.0324398 0
0.637194 0.0647963 0
0.639658 0.0324398 0
0.637194 0.0647963 0
0.738748 0.0374651 0
0.735902 0.0748339 0
0.738748 0.0374651 0
0.735902 0.0748339 0
0.855178 0.0433697 0
0.851884 0.0866281 0
0.855178 0.0433697 0
0.851884 0.0866281 0
0.991984 0.0503077 0
0.988163 0.100486 0
0.991984 0.0503077 0
0.988163 0.100486 0
1.15273 0.0584599 0
1.14829 0.11677 0
1.15273 0.0584599 0
1.14829 0.11677 0
1.34161 0.0680387 0
1.33644 0.135903 0
1.34161 0.0680387 0
1.33644 0.135903 0
1.56354 0.0792937 0
1.55752 0.158384 0
1.56354 0.0792937 0
1.55752 0.158384 0
1.82431 0.0925184 0
1.81728 0.184799 0
1.82431 0.0925184 0
1.81728 0.184799 0
2.13071 0.108057 0
2.1225 0.215838 0
2.13071 0.108057 0
2.1225 0.215838 0
2.49074 0.126316 0
2.48114 0.252307 0
2.49074 0.126316 0
2.48114 0.252307 0
2.91376 0.147769 0
2.90254 0.295159 0
2.91376 0.147769 0
2.90254 0.295159 0
3.41082 0.172977 0
3.39768 0.345511 0
3.41082 0.172977 0
3.39768 0.345511 0
3.99487 0.202597 0
3.97948 0.404673 0
0.0994869 0.0101168 0
0.0988468 0.0151428 0
0.104096 0.0105856 0
0.103426 0.0158444 0
0.104096 0.0105856 0
0.103426 0.0158444 0
0.109512 0.0111363 0
0.108808 0.0166687 0
0.109512 0.0111363 0
0.108808 0.0166687 0
0.115876 0.0117834 0
0.11513 0.0176373 0
0.115876 0.0117834 0
0.11513 0.0176373 0
0.123353 0.0125438 0
0.122559 0.0187754 0
0.123353 0.0125438 0
0.122559 0.0187754 0
0.132139 0.0134372 0
0.131289 0.0201127 0
0.132139 0.0134372 0
0.131289 0.0201127 0
0.142462 0.014487 0
0.141546 0.021684 0
0.142462 0.014487 0
0.141546 0.021684 0
0.154592 0.0157205 0
0.153598 0.0235303 0
0.154592 0.0157205 0
0.153598 0.0235303 0
0.168845 0.0171699 0
0.167759 0.0256997 0
0.168845 0.0171699 0
0.167759 0.0256997 0
0.185592 0.0188729 0
0.184398 0.0282487 0
0.185592 0.0188729 0
0.184398 0.0282487 0
0.20527 0.0208739 0
0.203949 0.0312438 0
0.20527 0.0208739 0
0.203949 0.0312438 0
0.228391 0.0232251 0
0.226922 0.0347631 0
0.228391 0.0232251 0
0.226922 0.0347631 0
0.255559 0.0259878 0
0.253914 0.0388982 0
0.255559 0.0259878 0
0.253914 0.0388982 0
0.28748 0.0292339 0
0.285631 0.043757 0
0.28748 0.0292339 0
0.285631 0.043757 0
0.324988 0.0330481 0
0.322897 0.0494661 0
0.324988 0.0330481 0
0.322897 0.0494661 0
0.36906 0.0375298 0
0.366686 0.0561742 0
0.36906 0.0375298 0
0.366686 0.0561742 0
0.420845 0.0427958 0
0.418137 0.0640563 0
0.420845 0.0427958 0
0.418137 0.0640563 0
0.481692 0.0489833 0
0.478593 0.0733177 0
0.481692 0.0489833 0
0.478593 0.0733177 0
0.553187 0.0562536 0
0.549628 0.0841999 0
0.553187 0.0562536 0
0.549628 0.0841999 0
0.637194 0.0647963 0
0.633094 0.0969865 0
0.637194 0.0647963 0
0.633094 0.0969865 0
0.735902 0.0748339 0
0.731167 0.112011 0
0.735902 0.0748339 0
0.731167 0.112011 0
0.851884 0.0866281 0
0.846403 0.129664 0
0.851884 0.0866281 0
0.846403 0.129664 0
0.988163 0.100486 0
0.981805 0.150407 0
0.988163 0.100486 0
0.981805 0.150407 0
1.14829 0.11677 0
1.1409 0.17478 0
1.14829 0.11677 0
1.1409 0.17478 0
1.33644 0.135903 0
1.32784 0.203418 0
1.33644 0.135903 0
1.32784 0.203418 0
1.55752 0.158384 0
1.5475 0.237068 0
1.55752 0.158384 0
1.5475 0.237068 0
1.81728 0.184799 0
1.80559 0.276606 0
1.81728 0.184799 0
1.80559 0.276606 0
2.1225 0.215838 0
2.10885 0.323064 0
2.1225 0.215838 0
2.10885 0.323064 0
2.48114 0.252307 0
2.46518 0.377651 0
2.48114 0.252307 0
2.46518 0.377651 0
2.90254 0.295159 0
2.88387 0.441792 0
2.90254 0.295159 0
2.88387 0.441792 0
3.39768 0.345511 0
3.37582 0.517157 0
3.39768 0.345511 0
3.37582 0.517157 0
3.97948 0.404673 0
3.95387 0.605711 0
0.0988468 0.0151428 0
0.097953 0.0201299 0
0.103426 0.0158444 0
0.102491 0.0210625 0
0.103426 0.0158444 0
0.102491 0.0210625 0
0.108808 0.0166687 0
0.107824 0.0221583 0
0.108808 0.0166687 0
0.107824 0.0221583 0
0.11513 0.0176373 0
0.114089 0.0234459 0
0.11513 0.0176373 0
0.114089 0.0234459 0
0.122559 0.0187754 0
0.121451 0.0249589 0
0.122559 0.0187754 0
0.121451 0.0249589 0
0.131289 0.0201127 0
0.130102 0.0267366 0
0.131289 0.0201127 0
0.130102 0.0267366 0
0.141546 0.021684 0
0.140266 0.0288254 0
0.141546 0.021684 0
0.140266 0.0288254 0
0.153598 0.0235303 0
0.152209 0.0312797 0
0.153598 0.0235303 0
0.152209 0.0312797 0
0.167759 0.0256997 0
0.166242 0.0341636 0
0.167759 0.0256997 0
0.166242 0.0341636 0
0.184398 0.0282487 0
0.182731 0.0375521 0
0.184398 0.0282487 0
0.182731 0.0375521 0
0.203949 0.0312438 0
0.202105 0.0415336 0
0.203949 0.0312438 0
0.202105 0.0415336 0
0.226922 0.0347631 0
0.22487 0.0462119 0
0.226922 0.0347631 0
0.22487 0.0462119 0
0.253914 0.0388982 0
0.251618 0.0517089 0
0.253914 0.0388982 0
0.251618 0.0517089 0
0.285631 0.043757 0
0.283048 0.0581678 0
0.285631 0.043757 0
0.283048 0.0581678 0
0.322897 0.0494661 0
0.319978 0.0657571 0
0.322897 0.0494661 0
0.319978 0.0657571 0
0.366686 0.0561742 0
0.36337 0.0746745 0
0.366686 0.0561742 0
0.36337 0.0746745 0
0.418137 0.0640563 0
0.414356 0.0851524 0
0.418137 0.0640563 0
0.414356 0.0851524 0
0.478593 0.0733177 0
0.474265 0.097464 0
0.478593 0.0733177 0
0.474265 0.097464 0
0.549628 0.0841999 0
0.544658 0.11193 0
0.549628 0.0841999 0
0.544658 0.11193 0
0.633094 0.0969865 0
0.62737 0.128928 0
0.633094 0.0969865 0
0.62737 0.128928 0
0.731167 0.112011 0
0.724556 0.1489 0
0.731167 0.112011 0
0.724556 0.1489 0
0.846403 0.129664 0
0.838749 0.172367 0
0.846403 0.129664 0
0.838749 0.172367 0
0.981805 0.150407 0
0.972927 0.199942 0
0.981805 0.150407 0
0.972927 0.199942 0
1.1409 0.17478 0
1.13059 0.232341 0
1.1409 0.17478 0
1.13059 0.232341 0
1.32784 0.203418 0
1.31583 0.270411 0
1.32784 0.203418 0
1.31583 0.270411 0
1.5475 0.237068 0
1.5335 0.315143 0
1.5475 0.237068 0
1.5335 0.315143 0
1.80559 0.276606 0
1.78926 0.367703 0
1.80559 0.276606 0
1.78926 0.367703 0
2.10885 0.323064 0
2.08978 0.42946 0
2.10885 0.323064 0
2.08978 0.42946 0
2.46518 0.377651 0
2.44289 0.502026 0
2.46518 0.377651 0
2.44289 0.502026 0
2.88387 0.441792 0
2.85779 0.58729 0
2.88387 0.441792 0
2.85779 0.58729 0
3.37582 0.517157 0
3.3453 0.687476 0
3.37582 0.517157 0
3.3453 0.687476 0
3.95387 0.605711 0
3.91812 0.805194 0
0.097953 0.0201299 0
0.0968077 0.0250653 0
0.102491 0.0210625 0
0.101293 0.0262265 0
0.102491 0.0210625 0
0.101293 0.0262265 0
0.107824 0.0221583 0
0.106563 0.0275911 0
0.107824 0.0221583 0
0.106563 0.0275911 0
0.114089 0.0234459 0
0.112755 0.0291944 0
0.114089 0.0234459 0
0.112755 0.0291944 0
0.121451 0.0249589 0
0.120031 0.0310782 0
0.121451 0.0249589 0
0.120031 0.0310782 0
0.130102 0.0267366 0
0.12858 0.0332918 0
0.130102 0.0267366 0
0.12858 0.0332918 0
0.140266 0.0288254 0
0.138626 0.0358927 0
0.140266 0.0288254 0
0.138626 0.0358927 0
0.152209 0.0312797 0
0.150429 0.0389488 0
0.152209 0.0312797 0
0.150429 0.0389488 0
0.166242 0.0341636 0
0.164298 0.0425397 0
0.166242 0.0341636 0
0.164298 0.0425397 0
0.182731 0.0375521 0
0.180594 0.046759 0
0.182731 0.0375521 0
0.180594 0.046759 0
0.202105 0.0415336 0
0.199742 0.0517167 0
0.202105 0.0415336 0
0.199742 0.0517167 0
0.22487 0.0462119 0
0.22224 0.057542 0
0.22487 0.0462119 0
0.22224 0.057542 0
0.251618 0.0517089 0
0.248676 0.0643867 0
0.251618 0.0517089 0
0.248676 0.0643867 0
0.283048 0.0581678 0
0.279738 0.0724293 0
0.283048 0.0581678 0
0.279738 0.0724293 0
0.319978 0.0657571 0
0.316236 0.0818793 0
0.319978 0.0657571 0
0.316236 0.0818793 0
0.36337 0.0746745 0
0.359122 0.092983 0
0.36337 0.0746745 0
0.359122 0.092983 0
0.414356 0.0851524 0
0.409512 0.10603 0
0.414356 0.0851524 0
0.409512 0.10603 0
0.474265 0.097464 0
0.46872 0.12136 0
0.474265 0.097464 0
0.46872 0.12136 0
0.544658 0.11193 0
0.53829 0.139373 0
0.544658 0.11193 0
0.53829 0.139373 0
0.62737 0.128928 0
0.620034 0.160538 0
0.62737 0.128928 0
0.620034 0.160538 0
0.724556 0.1489 0
0.716084 0.185407 0
0.724556 0.1489 0
0.716084 0.185407 0
0.838749 0.172367 0
0.828943 0.214628 0
0.838749 0.172367 0
0.828943 0.214628 0
0.972927 0.199942 0
0.961551 0.248963 0
0.972927 0.199942 0
0.961551 0.248963 0
1.13059 0.232341 0
1.11737 0.289306 0
1.13059 0.232341 0
1.11737 0.289306 0
1.31583 0.270411 0
1.30045 0.33671 0
1.31583 0.270411 0
1.30045 0.33671 0
1.5335 0.315143 0
1.51557 0.392409 0
1.5335 0.315143 0
1.51557 0.392409 0
1.78926 0.367703 0
1.76834 0.457855 0
1.78926 0.367703 0
1.76834 0.457855 0
2.08978 0.42946 0
2.06534 0.534755 0
2.08978 0.42946 0
2.06534 0.534755 0
2.44289 0.502026 0
2.41432 0.625112 0
2.44289 0.502026 0
2.41432 0.625112 0
2.85779 0.58729 0
2.82437 0.731281 0
2.85779 0.58729 0
2.82437 0.731281 0
3.3453 0.687476 0
3.30618 0.85603 0
3.3453 0.687476 0
3.30618 0.85603 0
3.91812 0.805194 0
3.87231 1.00261 0
0.0968077 0.0250653 0
0.0954139 0.0299363 0
0.101293 0.0262265 0
0.0998345 0.0313233 0
0.101293 0.0262265 0
0.0998345 0.0313233 0
0.106563 0.0275911 0
0.105029 0.032953 0
0.106563 0.0275911 0
0.105029 0.032953 0
0.112755 0.0291944 0
0.111132 0.0348678 0
0.112755 0.0291944 0
0.111132 0.0348678 0
0.120031 0.0310782 0
0.118303 0.0371178 0
0.120031 0.0310782 0
0.118303 0.0371178 0
0.12858 0.0332918 0
0.126729 0.0397615 0
0.12858 0.0332918 0
0.126729 0.0397615 0
0.138626 0.0358927 0
0.13663 0.0428679 0
0.138626 0.0358927 0
0.13663 0.0428679 0
0.150429 0.0389488 0
0.148263 0.0465179 0
0.150429 0.0389488 0
0.148263 0.0465179 0
0.164298 0.0425397 0
0.161933 0.0508067 0
0.164298 0.0425397 0
0.161933 0.0508067 0
0.180594 0.046759 0
0.177994 0.0558459 0
0.180594 0.046759 0
0.177994 0.0558459 0
0.199742 0.0517167 0
0.196866 0.0617671 0
0.199742 0.0517167 0
0.196866 0.0617671 0
0.22224 0.057542 0
0.219041 0.0687245 0
0.22224 0.057542 0
0.219041 0.0687245 0
0.248676 0.0643867 0
0.245096 0.0768993 0
0.248676 0.0643867 0
0.245096 0.0768993 0
0.279738 0.0724293 0
0.275711 0.0865048 0
0.279738 0.0724293 0
0.275711 0.0865048 0
0.316236 0.0818793 0
0.311683 0.0977913 0
0.316236 0.0818793 0
0.311683 0.0977913 0
0.359122 0.092983 0
0.353951 0.111053 0
0.359122 0.092983 0
0.353951 0.111053 0
0.409512 0.10603 0
0.403616 0.126635 0
0.409512 0.10603 0
0.403616 0.126635 0
0.46872 0.12136 0
0.461972 0.144945 0
0.46872 0.12136 0
0.461972 0.144945 0
0.53829 0.139373 0
0.53054 0.166458 0
0.53829 0.139373 0
0.53054 0.166458 0
0.620034 0.160538 0
0.611107 0.191736 0
0.620034 0.160538 0
0.611107 0.191736 0
0.716084 0.185407 0
0.705774 0.221438 0
0.716084 0.185407 0
0.705774 0.221438 0
0.828943 0.214628 0
0.817008 0.256338 0
0.828943 0.214628 0
0.817008 0.256338 0
0.961551 0.248963 0
0.947707 0.297345 0
0.961551 0.248963 0
0.947707 0.297345 0
1.11737 0.289306 0
1.10128 0.345529 0
1.11737 0.289306 0
1.10128 0.345529 0
1.30045 0.33671 0
1.28173 0.402144 0
1.30045 0.33671 0
1.28173 0.402144 0
1.51557 0.392409 0
1.49375 0.468668 0
1.51557 0.392409 0
1.49375 0.468668 0
1.76834 0.457855 0
1.74288 0.546832 0
1.76834 0.457855 0
1.74288 0.546832 0
2.06534 0.534755 0
2.03561 0.638676 0
2.06534 0.534755 0
2.03561 0.638676 0
2.41432 0.625112 0
2.37956 0.746593 0
2.41432 0.625112 0
2.37956 0.746593 0
2.82437 0.731281 0
2.78371 0.873395 0
2.82437 0.731281 0
2.78371 0.873395 0
3.30618 0.85603 0
3.25858 1.02239 0
3.30618 0.85603 0
3.25858 1.02239 0
3.87231 1.00261 0
3.81656 1.19745 0
0.0954139 0.0299363 0
0.0937752 0.0347305 0
0.0998345 0.0313233 0
0.0981199 0.0363396 0
0.0998345 0.0313233 0
0.0981199 0.0363396 0
0.105029 0.032953 0
0.103225 0.0382303 0
0.105029 0.032953 0
0.103225 0.0382303 0
0.111132 0.0348678 0
0.109223 0.0404518 0
0.111132 0.0348678 0
0.109223 0.0404518 0
0.118303 0.0371178 0
0.116271 0.0430621 0
0.118303 0.0371178 0
0.116271 0.0430621 0
0.126729 0.0397615 0
0.124553 0.0461292 0
0.126729 0.0397615 0
0.124553 0.0461292 0
0.13663 0.0428679 0
0.134283 0.0497331 0
0.13663 0.0428679 0
0.134283 0.0497331 0
0.148263 0.0465179 0
0.145717 0.0539676 0
0.148263 0.0465179 0
0.145717 0.0539676 0
0.161933 0.0508067 0
0.159151 0.0589432 0
0.161933 0.0508067 0
0.159151 0.0589432 0
0.177994 0.0558459 0
0.174937 0.0647895 0
0.177994 0.0558459 0
0.174937 0.0647895 0
0.196866 0.0617671 0
0.193485 0.0716589 0
0.196866 0.0617671 0
0.193485 0.0716589 0
0.219041 0.0687245 0
0.215279 0.0797305 0
0.219041 0.0687245 0
0.215279 0.0797305 0
0.245096 0.0768993 0
0.240886 0.0892145 0
0.245096 0.0768993 0
0.240886 0.0892145 0
0.275711 0.0865048 0
0.270976 0.100358 0
0.275711 0.0865048 0
0.270976 0.100358 0
0.311683 0.0977913 0
0.30633 0.113452 0
0.311683 0.0977913 0
0.30633 0.113452 0
0.353951 0.111053 0
0.347872 0.128838 0
0.353951 0.111053 0
0.347872 0.128838 0
0.403616 0.126635 0
0.396684 0.146916 0
0.403616 0.126635 0
0.396684 0.146916 0
0.461972 0.144945 0
0.454037 0.168157 0
0.461972 0.144945 0
0.454037 0.168157 0
0.53054 0.166458 0
0.521428 0.193116 0
0.53054 0.166458 0
0.521428 0.193116 0
0.611107 0.191736 0
0.600612 0.222442 0
0.611107 0.191736 0
0.600612 0.222442 0
0.705774 0.221438 0
0.693653 0.256901 0
0.705774 0.221438 0
0.693653 0.256901 0
0.817008 0.256338 0
0.802976 0.29739 0
0.817008 0.256338 0
0.802976 0.29739 0
0.947707 0.297345 0
0.931431 0.344964 0
0.947707 0.297345 0
0.931431 0.344964 0
1.10128 0.345529 0
1.08237 0.400864 0
1.10128 0.345529 0
1.08237 0.400864 0
1.28173 0.402144 0
1.25971 0.466546 0
1.28173 0.402144 0
1.25971 0.466546 0
1.49375 0.468668 0
1.4681 0.543723 0
1.49375 0.468668 0
1.4681 0.543723 0
1.74288 0.546832 0
1.71295 0.634406 0
1.74288 0.546832 0
1.71295 0.634406 0
2.03561 0.638676 0
2.00065 0.740958 0
2.03561 0.638676 0
2.00065 0.740958 0
2.37956 0.746593 0
2.33869 0.866157 0
2.37956 0.746593 0
2.33869 0.866157 0
2.78371 0.873395 0
2.7359 1.01327 0
2.78371 0.873395 0
2.7359 1.01327 0
3.25858 1.02239 0
3.20262 1.18612 0
3.25858 1.02239 0
3.20262 1.18612 0
3.81656 1.19745 0
3.75101 1.38922 0
0.0937752 0.0347305 0
0.0918958 0.0394356 0
0.0981199 0.0363396 0
0.0961534 0.0412627 0
0.0981199 0.0363396 0
0.0961534 0.0412627 0
0.103225 0.0382303 0
0.101156 0.0434095 0
0.103225 0.0382303 0
0.101156 0.0434095 0
0.109223 0.0404518 0
0.107034 0.045932 0
0.109223 0.0404518 0
0.107034 0.045932 0
0.116271 0.0430621 0
0.113941 0.0488959 0
0.116271 0.0430621 0
0.113941 0.0488959 0
0.124553 0.0461292 0
0.122056 0.0523785 0
0.124553 0.0461292 0
0.122056 0.0523785 0
0.134283 0.0497331 0
0.131592 0.0564706 0
0.134283 0.0497331 0
0.131592 0.0564706 0
0.145717 0.0539676 0
0.142797 0.0612788 0
0.145717 0.0539676 0
0.142797 0.0612788 0
0.159151 0.0589432 0
0.155962 0.0669284 0
0.159151 0.0589432 0
0.155962 0.0669284 0
0.174937 0.0647895 0
0.171431 0.0735668 0
0.174937 0.0647895 0
0.171431 0.0735668 0
0.193485 0.0716589 0
0.189607 0.0813668 0
0.193485 0.0716589 0
0.189607 0.0813668 0
0.215279 0.0797305 0
0.210964 0.0905318 0
0.215279 0.0797305 0
0.210964 0.0905318 0
0.240886 0.0892145 0
0.236059 0.101301 0
0.240886 0.0892145 0
0.236059 0.101301 0
0.270976 0.100358 0
0.265545 0.113954 0
0.270976 0.100358 0
0.265545 0.113954 0
0.30633 0.113452 0
0.300191 0.128822 0
0.30633 0.113452 0
0.300191 0.128822 0
0.347872 0.128838 0
0.3409 0.146292 0
0.347872 0.128838 0
0.3409 0.146292 0
0.396684 0.146916 0
0.388733 0.166819 0
0.396684 0.146916 0
0.388733 0.166819 0
0.454037 0.168157 0
0.444938 0.190938 0
0.454037 0.168157 0
0.444938 0.190938 0
0.521428 0.193116 0
0.510977 0.219278 0
0.521428 0.193116 0
0.510977 0.219278 0
0.600612 0.222442 0
0.588574 0.252577 0
0.600612 0.222442 0
0.588574 0.252577 0
0.693653 0.256901 0
0.679751 0.291704 0
0.693653 0.256901 0
0.679751 0.291704 0
0.802976 0.29739 0
0.786883 0.337678 0
0.802976 0.29739 0
0.786883 0.337678 0
0.931431 0.344964 0
0.912763 0.391697 0
0.931431 0.344964 0
0.912763 0.391697 0
1.08237 0.400864 0
1.06067 0.45517 0
1.08237 0.400864 0
1.06067 0.45517 0
1.25971 0.466546 0
1.23447 0.529751 0
1.25971 0.466546 0
1.23447 0.529751 0
1.4681 0.543723 0
1.43867 0.617383 0
1.4681 0.543723 0
1.43867 0.617383 0
1.71295 0.634406 0
1.67862 0.720351 0
1.71295 0.634406 0
1.67862 0.720351 0
2.00065 0.740958 0
1.96055 0.841339 0
2.00065 0.740958 0
1.96055 0.841339 0
2.33869 0.866157 0
2.29182 0.983499 0
2.33869 0.866157 0
2.29182 0.983499 0
2.7359 1.01327 0
2.68107 1.15054 0
2.7359 1.01327 0
2.68107 1.15054 0
3.20262 1.18612 0
3.13843 1.34681 0
3.20262 1.18612 0
3.13843 1.34681 0
3.75101 1.38922 0
3.67583 1.57742 0
0.0918958 0.0394356 0
0.0897805 0.0440394 0
0.0961534 0.0412627 0
0.09394 0.0460798 0
0.0961534 0.0412627 0
0.09394 0.0460798 0
0.101156 0.0434095 0
0.0988275 0.0484772 0
0.101156 0.0434095 0
0.0988275 0.0484772 0
0.107034 0.045932 0
0.10457 0.0512942 0
0.107034 0.045932 0
0.10457 0.0512942 0
0.113941 0.0488959 0
0.111318 0.0546042 0
0.113941 0.0488959 0
0.111318 0.0546042 0
0.122056 0.0523785 0
0.119247 0.0584934 0
0.122056 0.0523785 0
0.119247 0.0584934 0
0.131592 0.0564706 0
0.128563 0.0630632 0
0.131592 0.0564706 0
0.128563 0.0630632 0
0.142797 0.0612788 0
0.13951 0.0684327 0
0.142797 0.0612788 0
0.13951 0.0684327 0
0.155962 0.0669284 0
0.152372 0.0747419 0
0.155962 0.0669284 0
0.152372 0.0747419 0
0.171431 0.0735668 0
0.167485 0.0821552 0
0.171431 0.0735668 0
0.167485 0.0821552 0
0.189607 0.0813668 0
0.185243 0.0908658 0
0.189607 0.0813668 0
0.185243 0.0908658 0
0.210964 0.0905318 0
0.206108 0.101101 0
0.210964 0.0905318 0
0.206108 0.101101 0
0.236059 0.101301 0
0.230625 0.113127 0
0.236059 0.101301 0
0.230625 0.113127 0
0.265545 0.113954 0
0.259432 0.127258 0
0.265545 0.113954 0
0.259432 0.127258 0
0.300191 0.128822 0
0.293281 0.143861 0
0.300191 0.128822 0
0.293281 0.143861 0
0.3409 0.146292 0
0.333053 0.16337 0
0.3409 0.146292 0
0.333053 0.16337 0
0.388733 0.166819 0
0.379785 0.186294 0
0.388733 0.166819 0
0.379785 0.186294 0
0.444938 0.190938 0
0.434696 0.213228 0
0.444938 0.190938 0
0.434696 0.213228 0
0.510977 0.219278 0
0.499215 0.244877 0
0.510977 0.219278 0
0.499215 0.244877 0
0.588574 0.252577 0
0.575026 0.282064 0
0.588574 0.252577 0
0.575026 0.282064 0
0.679751 0.291704 0
0.664104 0.325758 0
0.679751 0.291704 0
0.664104 0.325758 0
0.786883 0.337678 0
0.76877 0.3771 0
0.786883 0.337678 0
0.76877 0.3771 0
0.912763 0.391697 0
0.891752 0.437425 0
0.912763 0.391697 0
0.891752 0.437425 0
1.06067 0.45517 0
1.03626 0.508308 0
1.06067 0.45517 0
1.03626 0.508308 0
1.23447 0.529751 0
1.20605 0.591596 0
1.23447 0.529751 0
1.20605 0.591596 0
1.43867 0.617383 0
1.40556 0.689459 0
1.43867 0.617383 0
1.40556 0.689459 0
1.67862 0.720351 0
1.63998 0.804447 0
1.67862 0.720351 0
1.63998 0.804447 0
1.96055 0.841339 0
1.91542 0.939559 0
1.96055 0.841339 0
1.91542 0.939559 0
2.29182 0.983499 0
2.23907 1.09832 0
2.29182 0.983499 0
2.23907 1.09832 0
2.68107 1.15054 0
2.61935 1.28485 0
2.68107 1.15054 0
2.61935 1.28485 0
3.13843 1.34681 0
3.06619 1.50404 0
3.13843 1.34681 0
3.06619 1.50404 0
3.67583 1.57742 0
3.59122 1.76158 0
0.0897805 0.0440394 0
0.0874347 0.0485302 0
0.09394 0.0460798 0
0.0914856 0.0507786 0
0.09394 0.0460798 0
0.0914856 0.0507786 0
0.0988275 0.0484772 0
0.0962454 0.0534205 0
0.0988275 0.0484772 0
0.0962454 0.0534205 0
0.10457 0.0512942 0
0.101838 0.0565248 0
0.10457 0.0512942 0
0.101838 0.0565248 0
0.111318 0.0546042 0
0.10841 0.0601722 0
0.111318 0.0546042 0
0.10841 0.0601722 0
0.119247 0.0584934 0
0.116131 0.064458 0
0.119247 0.0584934 0
0.116131 0.064458 0
0.128563 0.0630632 0
0.125204 0.0694938 0
0.128563 0.0630632 0
0.125204 0.0694938 0
0.13951 0.0684327 0
0.135864 0.0754109 0
0.13951 0.0684327 0
0.135864 0.0754109 0
0.152372 0.0747419 0
0.14839 0.0823634 0
0.152372 0.0747419 0
0.14839 0.0823634 0
0.167485 0.0821552 0
0.163109 0.0905327 0
0.167485 0.0821552 0
0.163109 0.0905327 0
0.185243 0.0908658 0
0.180402 0.100132 0
0.185243 0.0908658 0
0.180402 0.100132 0
0.206108 0.101101 0
0.200723 0.11141 0
0.206108 0.101101 0
0.200723 0.11141 0
0.230625 0.113127 0
0.224599 0.124663 0
0.230625 0.113127 0
0.224599 0.124663 0
0.259432 0.127258 0
0.252654 0.140234 0
0.259432 0.127258 0
0.252654 0.140234 0
0.293281 0.143861 0
0.285618 0.158531 0
0.293281 0.143861 0
0.285618 0.158531 0
0.333053 0.16337 0
0.324351 0.180029 0
0.333053 0.16337 0
0.324351 0.180029 0
0.379785 0.186294 0
0.369862 0.20529 0
0.379785 0.186294 0
0.369862 0.20529 0
0.434696 0.213228 0
0.423338 0.234972 0
0.434696 0.213228 0
0.423338 0.234972 0
0.499215 0.244877 0
0.486172 0.269847 0
0.499215 0.244877 0
0.486172 0.269847 0
0.575026 0.282064 0
0.560002 0.310826 0
0.575026 0.282064 0
0.560002 0.310826 0
0.664104 0.325758 0
0.646752 0.358977 0
0.664104 0.325758 0
0.646752 0.358977 0
0.76877 0.3771 0
0.748683 0.415553 0
0.76877 0.3771 0
0.748683 0.415553 0
0.891752 0.437425 0
0.868453 0.482031 0
0.891752 0.437425 0
0.868453 0.482031 0
1.03626 0.508308 0
1.00918 0.560141 0
1.03626 0.508308 0
1.00918 0.560141 0
1.20605 0.591596 0
1.17454 0.651922 0
1.20605 0.591596 0
1.17454 0.651922 0
1.40556 0.689459 0
1.36883 0.759764 0
1.40556 0.689459 0
1.36883 0.759764 0
1.63998 0.804447 0
1.59713 0.886478 0
1.63998 0.804447 0
1.59713 0.886478 0
1.91542 0.939559 0
1.86537 1.03537 0
1.91542 0.939559 0
1.86537 1.03537 0
2.23907 1.09832 0
2.18057 1.21031 0
2.23907 1.09832 0
2.18057 1.21031 0
2.61935 1.28485 0
2.55091 1.41587 0
2.61935 1.28485 0
2.55091 1.41587 0
3.06619 1.50404 0
2.98607 1.65741 0
3.06619 1.50404 0
2.98607 1.65741 0
3.59122 1.76158 0
3.49739 1.94121 0
0.0874347 0.0485302 0
0.0848644 0.0528964 0
0.0914856 0.0507786 0
0.0887962 0.0553471 0
0.0914856 0.0507786 0
0.0887962 0.0553471 0
0.0962454 0.0534205 0
0.0934161 0.0582267 0
0.0962454 0.0534205 0
0.0934161 0.0582267 0
0.101838 0.0565248 0
0.0988445 0.0616102 0
0.101838 0.0565248 0
0.0988445 0.0616102 0
0.10841 0.0601722 0
0.105223 0.0655859 0
0.10841 0.0601722 0
0.105223 0.0655859 0
0.116131 0.064458 0
0.112717 0.0702572 0
0.116131 0.064458 0
0.112717 0.0702572 0
0.125204 0.0694938 0
0.121523 0.0757461 0
0.125204 0.0694938 0
0.121523 0.0757461 0
0.135864 0.0754109 0
0.131871 0.0821955 0
0.135864 0.0754109 0
0.131871 0.0821955 0
0.14839 0.0823634 0
0.144028 0.0897736 0
0.14839 0.0823634 0
0.144028 0.0897736 0
0.163109 0.0905327 0
0.158314 0.0986778 0
0.163109 0.0905327 0
0.158314 0.0986778 0
0.180402 0.100132 0
0.175099 0.10914 0
0.180402 0.100132 0
0.175099 0.10914 0
0.200723 0.11141 0
0.194822 0.121434 0
0.200723 0.11141 0
0.194822 0.121434 0
0.224599 0.124663 0
0.217997 0.135878 0
0.224599 0.124663 0
0.217997 0.135878 0
0.252654 0.140234 0
0.245227 0.152851 0
0.252654 0.140234 0
0.245227 0.152851 0
0.285618 0.158531 0
0.277222 0.172794 0
0.285618 0.158531 0
0.277222 0.172794 0
0.324351 0.180029 0
0.314816 0.196226 0
0.324351 0.180029 0
0.314816 0.196226 0
0.369862 0.20529 0
0.35899 0.22376 0
0.369862 0.20529 0
0.35899 0.22376 0
0.423338 0.234972 0
0.410893 0.256112 0
0.423338 0.234972 0
0.410893 0.256112 0
0.486172 0.269847 0
0.47188 0.294125 0
0.486172 0.269847 0
0.47188 0.294125 0
0.560002 0.310826 0
0.54354 0.338791 0
0.560002 0.310826 0
0.54354 0.338791 0
0.646752 0.358977 0
0.62774 0.391273 0
0.646752 0.358977 0
0.62774 0.391273 0
0.748683 0.415553 0
0.726675 0.45294 0
0.748683 0.415553 0
0.726675 0.45294 0
0.868453 0.482031 0
0.842923 0.525398 0
0.868453 0.482031 0
0.842923 0.525398 0
1.00918 0.560141 0
0.979516 0.610537 0
1.00918 0.560141 0
0.979516 0.610537 0
1.17454 0.651922 0
1.14001 0.710575 0
1.17454 0.651922 0
1.14001 0.710575 0
1.36883 0.759764 0
1.32859 0.828119 0
1.36883 0.759764 0
1.32859 0.828119 0
1.59713 0.886478 0
1.55018 0.966234 0
1.59713 0.886478 0
1.55018 0.966234 0
1.86537 1.03537 0
1.81054 1.12852 0
1.86537 1.03537 0
1.81054 1.12852 0
2.18057 1.21031 0
2.11647 1.3192 0
2.18057 1.21031 0
2.11647 1.3192 0
2.55091 1.41587 0
2.47593 1.54326 0
2.55091 1.41587 0
2.47593 1.54326 0
2.98607 1.65741 0
2.89829 1.80652 0
2.98607 1.65741 0
2.89829 1.80652 0
3.49739 1.94121 0
3.39458 2.11586 0
0.0848644 0.0528964 0
0.0820763 0.0571268 0
0.0887962 0.0553471 0
0.085879 0.0597735 0
0.0887962 0.0553471 0
0.085879 0.0597735 0
0.0934161 0.0582267 0
0.0903471 0.0628834 0
0.0934161 0.0582267 0
0.0903471 0.0628834 0
0.0988445 0.0616102 0
0.0955971 0.0665375 0
0.0988445 0.0616102 0
0.0955971 0.0665375 0
0.105223 0.0655859 0
0.101766 0.0708311 0
0.105223 0.0655859 0
0.101766 0.0708311 0
0.112717 0.0702572 0
0.109014 0.0758761 0
0.112717 0.0702572 0
0.109014 0.0758761 0
0.121523 0.0757461 0
0.117531 0.0818039 0
0.121523 0.0757461 0
0.117531 0.0818039 0
0.131871 0.0821955 0
0.127538 0.0887692 0
0.131871 0.0821955 0
0.127538 0.0887692 0
0.144028 0.0897736 0
0.139297 0.0969533 0
0.144028 0.0897736 0
0.139297 0.0969533 0
0.158314 0.0986778 0
0.153113 0.10657 0
0.158314 0.0986778 0
0.153113 0.10657 0
0.175099 0.10914 0
0.169347 0.117869 0
0.175099 0.10914 0
0.169347 0.117869 0
0.194822 0.121434 0
0.188422 0.131145 0
0.194822 0.121434 0
0.188422 0.131145 0
0.217997 0.135878 0
0.210835 0.146745 0
0.217997 0.135878 0
0.210835 0.146745 0
0.245227 0.152851 0
0.23717 0.165075 0
0.245227 0.152851 0
0.23717 0.165075 0
0.277222 0.172794 0
0.268114 0.186613 0
0.277222 0.172794 0
0.268114 0.186613 0
0.314816 0.196226 0
0.304474 0.21192 0
0.314816 0.196226 0
0.304474 0.21192 0
0.35899 0.22376 0
0.347196 0.241655 0
0.35899 0.22376 0
0.347196 0.241655 0
0.410893 0.256112 0
0.397394 0.276595 0
0.410893 0.256112 0
0.397394 0.276595 0
0.47188 0.294125 0
0.456377 0.317648 0
0.47188 0.294125 0
0.456377 0.317648 0
0.54354 0.338791 0
0.525683 0.365886 0
0.54354 0.338791 0
0.525683 0.365886 0
0.62774 0.391273 0
0.607116 0.422566 0
0.62774 0.391273 0
0.607116 0.422566 0
0.726675 0.45294 0
0.702801 0.489164 0
0.726675 0.45294 0
0.702801 0.489164 0
0.842923 0.525398 0
0.815231 0.567417 0
0.842923 0.525398 0
0.815231 0.567417 0
0.979516 0.610537 0
0.947335 0.659365 0
0.979516 0.610537 0
0.947335 0.659365 0
1.14001 0.710575 0
1.10256 0.767403 0
1.14001 0.710575 0
1.10256 0.767403 0
1.32859 0.828119 0
1.28495 0.894348 0
1.32859 0.828119 0
1.28495 0.894348 0
1.55018 0.966234 0
1.49925 1.04351 0
1.55018 0.966234 0
1.49925 1.04351 0
1.81054 1.12852 0
1.75106 1.21877 0
1.81054 1.12852 0
1.75106 1.21877 0
2.11647 1.3192 0
2.04693 1.42471 0
2.11647 1.3192 0
2.04693 1.42471 0
2.47593 1.54326 0
2.39458 1.66668 0
2.47593 1.54326 0
2.39458 1.66668 0
2.89829 1.80652 0
2.80308 1.951 0
2.89829 1.80652 0
2.80308 1.951 0
3.39458 2.11586 0
3.28305 2.28507 0
0.0820763 0.0571268 0
0.0790776 0.0612106 0
0.085879 0.0597735 0
0.0827413 0.0640465 0
0.085879 0.0597735 0
0.0827413 0.0640465 0
0.0903471 0.0628834 0
0.0870461 0.0673787 0
0.0903471 0.0628834 0
0.0870461 0.0673787 0
0.0955971 0.0665375 0
0.0921043 0.0712941 0
0.0955971 0.0665375 0
0.0921043 0.0712941 0
0.101766 0.0708311 0
0.0980477 0.0758946 0
0.101766 0.0708311 0
0.0980477 0.0758946 0
0.109014 0.0758761 0
0.105031 0.0813002 0
0.109014 0.0758761 0
0.105031 0.0813002 0
0.117531 0.0818039 0
0.113237 0.0876518 0
0.117531 0.0818039 0
0.113237 0.0876518 0
0.127538 0.0887692 0
0.122878 0.0951149 0
0.127538 0.0887692 0
0.122878 0.0951149 0
0.139297 0.0969533 0
0.134207 0.103884 0
0.139297 0.0969533 0
0.134207 0.103884 0
0.153113 0.10657 0
0.147519 0.114188 0
0.153113 0.10657 0
0.147519 0.114188 0
0.169347 0.117869 0
0.163159 0.126295 0
0.169347 0.117869 0
0.163159 0.126295 0
0.188422 0.131145 0
0.181537 0.14052 0
0.188422 0.131145 0
0.181537 0.14052 0
0.210835 0.146745 0
0.203132 0.157236 0
0.210835 0.146745 0
0.203132 0.157236 0
0.23717 0.165075 0
0.228505 0.176876 0
0.23717 0.165075 0
0.228505 0.176876 0
0.268114 0.186613 0
0.258318 0.199953 0
0.268114 0.186613 0
0.258318 0.199953 0
0.304474 0.21192 0
0.293349 0.227069 0
0.304474 0.21192 0
0.293349 0.227069 0
0.347196 0.241655 0
0.33451 0.25893 0
0.347196 0.241655 0
0.33451 0.25893 0
0.397394 0.276595 0
0.382875 0.296367 0
0.397394 0.276595 0
0.382875 0.296367 0
0.456377 0.317648 0
0.439703 0.340356 0
0.456377 0.317648 0
0.439703 0.340356 0
0.525683 0.365886 0
0.506476 0.392042 0
0.525683 0.365886 0
0.506476 0.392042 0
0.607116 0.422566 0
0.584935 0.452773 0
0.607116 0.422566 0
0.584935 0.452773 0
0.702801 0.489164 0
0.677123 0.524132 0
0.702801 0.489164 0
0.677123 0.524132 0
0.815231 0.567417 0
0.785445 0.60798 0
0.815231 0.567417 0
0.785445 0.60798 0
0.947335 0.659365 0
0.912723 0.7065 0
0.947335 0.659365 0
0.912723 0.7065 0
1.10256 0.767403 0
1.06227 0.822262 0
1.10256 0.767403 0
1.06227 0.822262 0
1.28495 0.894348 0
1.238 0.958282 0
1.28495 0.894348 0
1.238 0.958282 0
1.49925 1.04351 0
1.44447 1.11811 0
1.49925 1.04351 0
1.44447 1.11811 0
1.75106 1.21877 0
1.68708 1.3059 0
1.75106 1.21877 0
1.68708 1.3059 0
2.04693 1.42471 0
1.97214 1.52655 0
2.04693 1.42471 0
1.97214 1.52655 0
2.39458 1.66668 0
2.3071 1.78582 0
2.39458 1.66668 0
2.3071 1.78582 0
2.80308 1.951 0
2.70066 2.09047 0
2.80308 1.951 0
2.70066 2.09047 0
3.28305 2.28507 0
3.1631 2.44842 0
0.0790776 0.0612106 0
0.0758758 0.0651372 0
0.0827413 0.0640465 0
0.0793912 0.0681551 0
0.0827413 0.0640465 0
0.0793912 0.0681551 0
0.0870461 0.0673787 0
0.0835217 0.0717011 0
0.0870461 0.0673787 0
0.0835217 0.0717011 0
0.0921043 0.0712941 0
0.0883751 0.0758676 0
0.0921043 0.0712941 0
0.0883751 0.0758676 0
0.0980477 0.0758946 0
0.0940779 0.0807632 0
0.0980477 0.0758946 0
0.0940779 0.0807632 0
0.105031 0.0813002 0
0.100779 0.0865156 0
0.105031 0.0813002 0
0.100779 0.0865156 0
0.113237 0.0876518 0
0.108652 0.0932746 0
0.113237 0.0876518 0
0.108652 0.0932746 0
0.122878 0.0951149 0
0.117903 0.101217 0
0.122878 0.0951149 0
0.117903 0.101217 0
0.134207 0.103884 0
0.128773 0.110548 0
0.134207 0.103884 0
0.128773 0.110548 0
0.147519 0.114188 0
0.141546 0.121513 0
0.147519 0.114188 0
0.141546 0.121513 0
0.163159 0.126295 0
0.156553 0.134397 0
0.163159 0.126295 0
0.156553 0.134397 0
0.181537 0.14052 0
0.174187 0.149535 0
0.181537 0.14052 0
0.174187 0.149535 0
0.203132 0.157236 0
0.194907 0.167322 0
0.203132 0.157236 0
0.194907 0.167322 0
0.228505 0.176876 0
0.219253 0.188222 0
0.228505 0.176876 0
0.219253 0.188222 0
0.258318 0.199953 0
0.247859 0.21278 0
0.258318 0.199953 0
0.247859 0.21278 0
0.293349 0.227069 0
0.281472 0.241636 0
0.293349 0.227069 0
0.281472 0.241636 0
0.33451 0.25893 0
0.320966 0.275541 0
0.33451 0.25893 0
0.320966 0.275541 0
0.382875 0.296367 0
0.367373 0.315379 0
0.382875 0.296367 0
0.367373 0.315379 0
0.439703 0.340356 0
0.4219 0.362189 0
0.439703 0.340356 0
0.4219 0.362189 0
0.506476 0.392042 0
0.48597 0.417191 0
0.506476 0.392042 0
0.48597 0.417191 0
0.584935 0.452773 0
0.561251 0.481818 0
0.584935 0.452773 0
0.561251 0.481818 0
0.677123 0.524132 0
0.649707 0.557756 0
0.677123 0.524132 0
0.649707 0.557756 0
0.785445 0.60798 0
0.753643 0.646982 0
0.785445 0.60798 0
0.753643 0.646982 0
0.912723 0.7065 0
0.875768 0.751822 0
0.912723 0.7065 0
0.875768 0.751822 0
1.06227 0.822262 0
1.01926 0.87501 0
1.06227 0.822262 0
1.01926 0.87501 0
1.238 0.958282 0
1.18787 1.01976 0
1.238 0.958282 0
1.18787 1.01976 0
1.44447 1.11811 0
1.38599 1.18983 0
1.44447 1.11811 0
1.38599 1.18983 0
1.68708 1.3059 0
1.61877 1.38967 0
1.68708 1.3059 0
1.61877 1.38967 0
1.97214 1.52655 0
1.89229 1.62448 0
1.97214 1.52655 0
1.89229 1.62448 0
2.3071 1.78582 0
2.21368 1.90038 0
2.3071 1.78582 0
2.21368 1.90038 0
2.70066 2.09047 0
2.59132 2.22457 0
2.70066 2.09047 0
2.59132 2.22457 0
3.1631 2.44842 0
3.03503 2.60549 0
0.0758758 0.0651372 0
0.0724793 0.0688967 0
0.0793912 0.0681551 0
0.0758373 0.0720887 0
0.0793912 0.0681551 0
0.0758373 0.0720887 0
0.0835217 0.0717011 0
0.0797829 0.0758393 0
0.0835217 0.0717011 0
0.0797829 0.0758393 0
0.0883751 0.0758676 0
0.0844191 0.0802463 0
0.0883751 0.0758676 0
0.0844191 0.0802463 0
0.0940779 0.0807632 0
0.0898665 0.0854245 0
0.0940779 0.0807632 0
0.0898665 0.0854245 0
0.100779 0.0865156 0
0.0962673 0.0915089 0
0.100779 0.0865156 0
0.0962673 0.0915089 0
0.108652 0.0932746 0
0.103788 0.0986581 0
0.108652 0.0932746 0
0.103788 0.0986581 0
0.117903 0.101217 0
0.112625 0.107058 0
0.117903 0.101217 0
0.112625 0.107058 0
0.128773 0.110548 0
0.123009 0.116929 0
0.128773 0.110548 0
0.123009 0.116929 0
0.141546 0.121513 0
0.13521 0.128526 0
0.141546 0.121513 0
0.13521 0.128526 0
0.156553 0.134397 0
0.149545 0.142153 0
0.156553 0.134397 0
0.149545 0.142153 0
0.174187 0.149535 0
0.16639 0.158165 0
0.174187 0.149535 0
0.16639 0.158165 0
0.194907 0.167322 0
0.186182 0.176979 0
0.194907 0.167322 0
0.186182 0.176979 0
0.219253 0.188222 0
0.209438 0.199086 0
0.219253 0.188222 0
0.209438 0.199086 0
0.247859 0.21278 0
0.236764 0.225061 0
0.247859 0.21278 0
0.236764 0.225061 0
0.281472 0.241636 0
0.268872 0.255582 0
0.281472 0.241636 0
0.268872 0.255582 0
0.320966 0.275541 0
0.306599 0.291444 0
0.320966 0.275541 0
0.306599 0.291444 0
0.367373 0.315379 0
0.350927 0.333581 0
0.367373 0.315379 0
0.350927 0.333581 0
0.4219 0.362189 0
0.403014 0.383093 0
0.4219 0.362189 0
0.403014 0.383093 0
0.48597 0.417191 0
0.464215 0.44127 0
0.48597 0.417191 0
0.464215 0.44127 0
0.561251 0.481818 0
0.536127 0.509627 0
0.561251 0.481818 0
0.536127 0.509627 0
0.649707 0.557756 0
0.620624 0.589947 0
0.649707 0.557756 0
0.620624 0.589947 0
0.753643 0.646982 0
0.719907 0.684323 0
0.753643 0.646982 0
0.719907 0.684323 0
0.875768 0.751822 0
0.836565 0.795214 0
0.875768 0.751822 0
0.836565 0.795214 0
1.01926 0.87501 0
0.973638 0.925512 0
1.01926 0.87501 0
0.973638 0.925512 0
1.18787 1.01976 0
1.1347 1.07861 0
1.18787 1.01976 0
1.1347 1.07861 0
1.38599 1.18983 0
1.32394 1.2585 0
1.38599 1.18983 0
1.32394 1.2585 0
1.61877 1.38967 0
1.54631 1.46988 0
1.61877 1.38967 0
1.54631 1.46988 0
1.89229 1.62448 0
1.80759 1.71824 0
1.89229 1.62448 0
1.80759 1.71824 0
2.21368 1.90038 0
2.11459 2.01007 0
2.21368 1.90038 0
2.11459 2.01007 0
2.59132 2.22457 0
2.47532 2.35296 0
2.59132 2.22457 0
2.47532 2.35296 0
3.03503 2.60549 0
2.89917 2.75587 0
0.0724793 0.0688967 0
0.0688967 0.0724793 0
0.0758373 0.0720887 0
0.0720887 0.0758373 0
0.0758373 0.0720887 0
0.0720887 0.0758373 0
0.0797829 0.0758393 0
0.0758393 0.0797829 0
0.0797829 0.0758393 0
0.0758393 0.0797829 0
0.0844191 0.0802463 0
0.0802463 0.0844191 0
0.0844191 0.0802463 0
0.0802463 0.0844191 0
0.0898665 0.0854245 0
0.0854245 0.0898665 0
0.0898665 0.0854245 0
0.0854245 0.0898665 0
0.0962673 0.0915089 0
0.0915089 0.0962673 0
0.0962673 0.0915089 0
0.0915089 0.0962673 0
0.103788 0.0986581 0
0.0986581 0.103788 0
0.103788 0.0986581 0
0.0986581 0.103788 0
0.112625 0.107058 0
0.107058 0.112625 0
0.112625 0.107058 0
0.107058 0.112625 0
0.123009 0.116929 0
0.116929 0.123009 0
0.123009 0.116929 0
0.116929 0.123009 0
0.13521 0.128526 0
0.128526 0.13521 0
0.13521 0.128526 0
0.128526 0.13521 0
0.149545 0.142153 0
0.142153 0.149545 0
0.149545 0.142153 0
0.142153 0.149545 0
0.16639 0.158165 0
0.158165 0.16639 0
0.16639 0.158165 0
0.158165 0.16639 0
0.186182 0.176979 0
0.176979 0.186182 0
0.186182 0.176979 0
0.176979 0.186182 0
0.209438 0.199086 0
0.199086 0.209438 0
0.209438 0.199086 0
0.199086 0.209438 0
0.236764 0.225061 0
0.225061 0.236764 0
0.236764 0.225061 0
0.225061 0.236764 0
0.268872 0.255582 0
0.255582 0.268872 0
0.268872 0.255582 0
0.255582 0.268872 0
0.306599 0.291444 0
0.291444 0.306599 0
0.306599 0.291444 0
0.291444 0.306599 0
0.350927 0.333581 0
0.333581 0.350927 0
0.350927 0.333581 0
0.333581 0.350927 0
0.403014 0.383093 0
0.383093 0.403014 0
0.403014 0.383093 0
0.383093 0.403014 0
0.464215 0.44127 0
0.44127 0.464215 0
0.464215 0.44127 0
0.44127 0.464215 0
0.536127 0.509627 0
0.509627 0.536127 0
0.536127 0.509627 0
0.509627 0.536127 0
0.620624 0.589947 0
0.589947 0.620624 0
0.620624 0.589947 0
0.589947 0.620624 0
0.719907 0.684323 0
0.684323 0.719907 0
0.719907 0.684323 0
0.684323 0.719907 0
0.836565 0.795214 0
0.795214 0.836565 0
0.836565 0.795214 0
0.795214 0.836565 0
0.973638 0.925512 0
0.925512 0.973638 0
0.973638 0.925512 0
0.925512 0.973638 0
1.1347 1.07861 0
1.07861 1.1347 0
1.1347 1.07861 0
1.07861 1.1347 0
1.32394 1.2585 0
1.2585 1.32394 0
1.32394 1.2585 0
1.2585 1.32394 0
1.54631 1.46988 0
1.46988 1.54631 0
1.54631 1.46988 0
1.46988 1.54631 0
1.80759 1.71824 0
1.71824 1.80759 0
1.80759 1.71824 0
1.71824 1.80759 0
2.11459 2.01007 0
2.01007 2.11459 0
2.11459 2.01007 0
2.01007 2.11459 0
2.47532 2.35296 0
2.35296 2.47532 0
2.47532 2.35296 0
2.35296 2.47532 0
2.89917 2.75587 0
2.75587 2.89917 0
0.0688967 0.0724793 0
0.0651372 0.0758758 0
0.0720887 0.0758373 0
0.0681551 0.0793912 0
0.0720887 0.0758373 0
0.0681551 0.0793912 0
0.0758393 0.0797829 0
0.0717011 0.0835217 0
0.0758393 0.0797829 0
0.0717011 0.0835217 0
0.0802463 0.0844191 0
0.0758676 0.0883751 0
0.0802463 0.0844191 0
0.0758676 0.0883751 0
0.0854245 0.0898665 0
0.0807632 0.0940779 0
0.0854245 0.0898665 0
0.0807632 0.0940779 0
0.0915089 0.0962673 0
0.0865156 0.100779 0
0.0915089 0.0962673 0
0.0865156 0.100779 0
0.0986581 0.103788 0
0.0932746 0.108652 0
0.0986581 0.103788 0
0.0932746 0.108652 0
0.107058 0.112625 0
0.101217 0.117903 0
0.107058 0.112625 0
0.101217 0.117903 0
0.116929 0.123009 0
0.110548 0.128773 0
0.116929 0.123009 0
0.110548 0.128773 0
0.128526 0.13521 0
0.121513 0.141546 0
0.128526 0.13521 0
0.121513 0.141546 0
0.142153 0.149545 0
0.134397 0.156553 0
0.142153 0.149545 0
0.134397 0.156553 0
0.158165 0.16639 0
0.149535 0.174187 0
0.158165 0.16639 0
0.149535 0.174187 0
0.176979 0.186182 0
0.167322 0.194907 0
0.176979 0.186182 0
0.167322 0.194907 0
0.199086 0.209438 0
0.188222 0.219253 0
0.199086 0.209438 0
0.188222 0.219253 0
0.225061 0.236764 0
0.21278 0.247859 0
0.225061 0.236764 0
0.21278 0.247859 0
0.255582 0.268872 0
0.241636 0.281472 0
0.255582 0.268872 0
0.241636 0.281472 0
0.291444 0.306599 0
0.275541 0.320966 0
0.291444 0.306599 0
0.275541 0.320966 0
0.333581 0.350927 0
0.315379 0.367373 0
0.333581 0.350927 0
0.315379 0.367373 0
0.383093 0.403014 0
0.362189 0.4219 0
0.383093 0.403014 0
0.362189 0.4219 0
0.44127 0.464215 0
0.417191 0.48597 0
0.44127 0.464215 0
0.417191 0.48597 0
0.509627 0.536127 0
0.481818 0.561251 0
0.509627 0.536127 0
0.481818 0.561251 0
0.589947 0.620624 0
0.557756 0.649707 0
0.589947 0.620624 0
0.557756 0.649707 0
0.684323 0.719907 0
0.646982 0.753643 0
0.684323 0.719907 0
0.646982 0.753643 0
0.795214 0.836565 0
0.751822 0.875768 0
0.795214 0.836565 0
0.751822 0.875768 0
0.925512 0.973638 0
0.87501 1.01926 0
0.925512 0.973638 0
0.87501 1.01926 0
1.07861 1.1347 0
1.01976 1.18787 0
1.07861 1.1347 0
1.01976 1.18787 0
1.2585 1.32394 0
1.18983 1.38599 0
1.2585 1.32394 0
1.18983 1.38599 0
1.46988 1.54631 0
1.38967 1.61877 0
1.46988 1.54631 0
1.38967 1.61877 0
1.71824 1.80759 0
1.62448 1.89229 0
1.71824 1.80759 0
1.62448 1.89229 0
2.01007 2.11459 0
1.90038 2.21368 0
2.01007 2.11459 0
1.90038 2.21368 0
2.35296 2.47532 0
2.22457 2.59132 0
2.35296 2.47532 0
2.22457 2.59132 0
2.75587 2.89917 0
2.60549 3.03503 0
0.0651372 0.0758758 0
0.0612106 0.0790776 0
0.0681551 0.0793912 0
0.0640465 0.0827413 0
0.0681551 0.0793912 0
0.0640465 0.0827413 0
0.0717011 0.0835217 0
0.0673787 0.0870461 0
0.0717011 0.0835217 0
0.0673787 0.0870461 0
0.0758676 0.0883751 0
0.0712941 0.0921043 0
0.0758676 0.0883751 0
0.0712941 0.0921043 0
0.0807632 0.0940779 0
0.0758946 0.0980477 0
0.0807632 0.0940779 0
0.0758946 0.0980477 0
0.0865156 0.100779 0
0.0813002 0.105031 0
0.0865156 0.100779 0
0.0813002 0.105031 0
0.0932746 0.108652 0
0.0876518 0.113237 0
0.0932746 0.108652 0
0.0876518 0.113237 0
0.101217 0.117903 0
0.0951149 0.122878 0
0.101217 0.117903 0
0.0951149 0.122878 0
0.110548 0.128773 0
0.103884 0.134207 0
0.110548 0.128773 0
0.103884 0.134207 0
0.121513 0.141546 0
0.114188 0.147519 0
0.121513 0.141546 0
0.114188 0.147519 0
0.134397 0.156553 0
0.126295 0.163159 0
0.134397 0.156553 0
0.126295 0.163159 0
0.149535 0.174187 0
0.14052 0.181537 0
0.149535 0.174187 0
0.14052 0.181537 0
0.167322 0.194907 0
0.157236 0.203132 0
0.167322 0.194907 0
0.157236 0.203132 0
0.188222 0.219253 0
0.176876 0.228505 0
0.188222 0.219253 0
0.176876 0.228505 0
0.21278 0.247859 0
0.199953 0.258318 0
0.21278 0.247859 0
0.199953 0.258318 0
0.241636 0.281472 0
0.227069 0.293349 0
0.241636 0.281472 0
0.227069 0.293349 0
0.275541 0.320966 0
0.25893 0.33451 0
0.275541 0.320966 0
0.25893 0.33451 0
0.315379 0.367373 0
0.296367 0.382875 0
0.315379 0.367373 0
0.296367 0.382875 0
0.362189 0.4219 0
0.340355 0.439703 0
0.362189 0.4219 0
0.340355 0.439703 0
0.417191 0.48597 0
0.392042 0.506476 0
0.417191 0.48597 0
0.392042 0.506476 0
0.481818 0.561251 0
0.452773 0.584935 0
0.481818 0.561251 0
0.452773 0.584935 0
0.557756 0.649707 0
0.524132 0.677123 0
0.557756 0.649707 0
0.524132 0.677123 0
0.646982 0.753643 0
0.60798 0.785445 0
0.646982 0.753643 0
0.60798 0.785445 0
0.751822 0.875768 0
0.7065 0.912723 0
0.751822 0.875768 0
0.7065 0.912723 0
0.87501 1.01926 0
0.822262 1.06227 0
0.87501 1.01926 0
0.822262 1.06227 0
1.01976 1.18787 0
0.958282 1.238 0
1.01976 1.18787 0
0.958282 1.238 0
1.18983 1.38599 0
1.11811 1.44447 0
1.18983 1.38599 0
1.11811 1.44447 0
1.38967 1.61877 0
1.3059 1.68708 0
1.38967 1.61877 0
1.3059 1.68708 0
1.62448 1.89229 0
1.52655 1.97214 0
1.62448 1.89229 0
1.52655 1.97214 0
1.90038 2.21368 0
1.78582 2.3071 0
1.90038 2.21368 0
1.78582 2.3071 0
2.22457 2.59132 0
2.09047 2.70066 0
2.22457 2.59132 0
2.09047 2.70066 0
2.60549 3.03503 0
2.44842 3.1631 0
0.0612106 0.0790776 0
0.0571268 0.0820763 0
0.0640465 0.0827413 0
0.0597735 0.085879 0
0.0640465 0.0827413 0
0.0597735 0.085879 0
0.0673787 0.0870461 0
0.0628834 0.0903471 0
0.0673787 0.0870461 0
0.0628834 0.0903471 0
0.0712941 0.0921043 0
0.0665375 0.0955971 0
0.0712941 0.0921043 0
0.0665375 0.0955971 0
0.0758946 0.0980477 0
0.0708311 0.101766 0
0.0758946 0.0980477 0
0.0708311 0.101766 0
0.0813002 0.105031 0
0.0758761 0.109014 0
0.0813002 0.105031 0
0.0758761 0.109014 0
0.0876518 0.113237 0
0.0818039 0.117531 0
0.0876518 0.113237 0
0.0818039 0.117531 0
0.0951149 0.122878 0
0.0887692 0.127538 0
0.0951149 0.122878 0
0.0887692 0.127538 0
0.103884 0.134207 0
0.0969533 0.139297 0
0.103884 0.134207 0
0.0969533 0.139297 0
0.114188 0.147519 0
0.10657 0.153113 0
0.114188 0.147519 0
0.10657 0.153113 0
0.126295 0.163159 0
0.117869 0.169347 0
0.126295 0.163159 0
0.117869 0.169347 0
0.14052 0.181537 0
0.131145 0.188422 0
0.14052 0.181537 0
0.131145 0.188422 0
0.157236 0.203132 0
0.146745 0.210835 0
0.157236 0.203132 0
0.146745 0.210835 0
0.176876 0.228505 0
0.165075 0.23717 0
0.176876 0.228505 0
0.165075 0.23717 0
0.199953 0.258318 0
0.186613 0.268114 0
0.199953 0.258318 0
0.186613 0.268114 0
0.227069 0.293349 0
0.21192 0.304474 0
0.227069 0.293349 0
0.21192 0.304474 0
0.25893 0.33451 0
0.241655 0.347196 0
0.25893 0.33451 0
0.241655 0.347196 0
0.296367 0.382875 0
0.276595 0.397394 0
0.296367 0.382875 0
0.276595 0.397394 0
0.340355 0.439703 0
0.317648 0.456377 0
0.340355 0.439703 0
0.317648 0.456377 0
0.392042 0.506476 0
0.365886 0.525683 0
0.392042 0.506476 0
0.365886 0.525683 0
0.452773 0.584935 0
0.422566 0.607116 0
0.452773 0.584935 0
0.422566 0.607116 0
0.524132 0.677123 0
0.489164 0.702801 0
0.524132 0.677123 0
0.489164 0.702801 0
0.60798 0.785445 0
0.567417 0.815231 0
0.60798 0.785445 0
0.567417 0.815231 0
0.7065 0.912723 0
0.659365 0.947335 0
0.7065 0.912723 0
0.659365 0.947335 0
0.822262 1.06227 0
0.767403 1.10256 0
0.822262 1.06227 0
0.767403 1.10256 0
0.958282 1.238 0
0.894348 1.28495 0
0.958282 1.238 0
0.894348 1.28495 0
1.11811 1.44447 0
1.04351 1.49925 0
1.11811 1.44447 0
1.04351 1.49925 0
1.3059 1.68708 0
1.21877 1.75106 0
1.3059 1.68708 0
1.21877 1.75106 0
1.52655 1.97214 0
1.42471 2.04693 0
1.52655 1.97214 0
1.42471 2.04693 0
1.78582 2.3071 0
1.66668 2.39458 0
1.78582 2.3071 0
1.66668 2.39458 0
2.09047 2.70066 0
1.951 2.80308 0
2.09047 2.70066 0
1.951 2.80308 0
2.44842 3.1631 0
2.28507 3.28305 0
0.0571268 0.0820763 0
0.0528964 0.0848644 0
0.0597735 0.085879 0
0.0553471 0.0887962 0
0.0597735 0.085879 0
0.0553471 0.0887962 0
0.0628834 0.0903471 0
0.0582267 0.0934161 0
0.0628834 0.0903471 0
0.0582267 0.0934161 0
0.0665375 0.0955971 0
0.0616102 0.0988445 0
0.0665375 0.0955971 0
0.0616102 0.0988445 0
0.0708311 0.101766 0
0.0655859 0.105223 0
0.0708311 0.101766 0
0.0655859 0.105223 0
0.0758761 0.109014 0
0.0702572 0.112717 0
0.0758761 0.109014 0
0.0702572 0.112717 0
0.0818039 0.117531 0
0.0757461 0.121523 0
0.0818039 0.117531 0
0.0757461 0.121523 0
0.0887692 0.127538 0
0.0821955 0.131871 0
0.0887692 0.127538 0
0.0821955 0.131871 0
0.0969533 0.139297 0
0.0897736 0.144028 0
0.0969533 0.139297 0
0.0897736 0.144028 0
0.10657 0.153113 0
0.0986778 0.158314 0
0.10657 0.153113 0
0.0986778 0.158314 0
0.117869 0.169347 0
0.10914 0.175099 0
0.117869 0.169347 0
0.10914 0.175099 0
0.131145 0.188422 0
0.121434 0.194822 0
0.131145 0.188422 0
0.121434 0.194822 0
0.146745 0.210835 0
0.135878 0.217997 0
0.146745 0.210835 0
0.135878 0.217997 0
0.165075 0.23717 0
0.152851 0.245227 0
0.165075 0.23717 0
0.152851 0.245227 0
0.186613 0.268114 0
0.172794 0.277222 0
0.186613 0.268114 0
0.172794 0.277222 0
0.21192 0.304474 0
0.196226 0.314816 0
0.21192 0.304474 0
0.196226 0.314816 0
0.241655 0.347196 0
0.22376 0.35899 0
0.241655 0.347196 0
0.22376 0.35899 0
0.276595 0.397394 0
0.256112 0.410893 0
0.276595 0.397394 0
0.256112 0.410893 0
0.317648 0.456377 0
0.294125 0.47188 0
0.317648 0.456377 0
0.294125 0.47188 0
0.365886 0.525683 0
0.338791 0.54354 0
0.365886 0.525683 0
0.338791 0.54354 0
0.422566 0.607116 0
0.391273 0.62774 0
0.422566 0.607116 0
0.391273 0.62774 0
0.489164 0.702801 0
0.45294 0.726675 0
0.489164 0.702801 0
0.45294 0.726675 0
0.567417 0.815231 0
0.525398 0.842924 0
0.567417 0.815231 0
0.525398 0.842924 0
0.659365 0.947335 0
0.610537 0.979516 0
0.659365 0.947335 0
0.610537 0.979516 0
0.767403 1.10256 0
0.710575 1.14001 0
0.767403 1.10256 0
0.710575 1.14001 0
0.894348 1.28495 0
0.828119 1.32859 0
0.894348 1.28495 0
0.828119 1.32859 0
1.04351 1.49925 0
0.966234 1.55018 0
1.04351 1.49925 0
0.966234 1.55018 0
1.21877 1.75106 0
1.12852 1.81054 0
1.21877 1.75106 0
1.12852 1.81054 0
1.42471 2.04693 0
1.3192 2.11647 0
1.42471 2.04693 0
1.3192 2.11647 0
1.66668 2.39458 0
1.54326 2.47593 0
1.66668 2.39458 0
1.54326 2.47593 0
1.951 2.80308 0
1.80652 2.89829 0
1.951 2.80308 0
1.80652 2.89829 0
2.28507 3.28305 0
2.11586 3.39458 0
0.0528964 0.0848644 0
0.0485302 0.0874347 0
0.0553471 0.0887962 0
0.0507786 0.0914856 0
0.0553471 0.0887962 0
0.0507786 0.0914856 0
0.0582267 0.0934161 0
0.0534205 0.0962454 0
0.0582267 0.0934161 0
0.0534205 0.0962454 0
0.0616102 0.0988445 0
0.0565248 0.101838 0
0.0616102 0.0988445 0
0.0565248 0.101838 0
0.0655859 0.105223 0
0.0601722 0.10841 0
0.0655859 0.105223 0
0.0601722 0.10841 0
0.0702572 0.112717 0
0.064458 0.116131 0
0.0702572 0.112717 0
0.064458 0.116131 0
0.0757461 0.121523 0
0.0694938 0.125204 0
0.0757461 0.121523 0
0.0694938 0.125204 0
0.0821955 0.131871 0
0.0754109 0.135864 0
0.0821955 0.131871 0
0.0754109 0.135864 0
0.0897736 0.144028 0
0.0823634 0.14839 0
0.0897736 0.144028 0
0.0823634 0.14839 0
0.0986778 0.158314 0
0.0905327 0.163109 0
0.0986778 0.158314 0
0.0905327 0.163109 0
0.10914 0.175099 0
0.100132 0.180402 0
0.10914 0.175099 0
0.100132 0.180402 0
0.121434 0.194822 0
0.11141 0.200723 0
0.121434 0.194822 0
0.11141 0.200723 0
0.135878 0.217997 0
0.124663 0.224599 0
0.135878 0.217997 0
0.124663 0.224599 0
0.152851 0.245227 0
0.140234 0.252654 0
0.152851 0.245227 0
0.140234 0.252654 0
0.172794 0.277222 0
0.158531 0.285618 0
0.172794 0.277222 0
0.158531 0.285618 0
0.196226 0.314816 0
0.180029 0.324351 0
0.196226 0.314816 0
0.180029 0.324351 0
0.22376 0.35899 0
0.20529 0.369862 0
0.22376 0.35899 0
0.20529 0.369862 0
0.256112 0.410893 0
0.234972 0.423338 0
0.256112 0.410893 0
0.234972 0.423338 0
0.294125 0.47188 0
0.269847 0.486172 0
0.294125 0.47188 0
0.269847 0.486172 0
0.338791 0.54354 0
0.310826 0.560002 0
0.338791 0.54354 0
0.310826 0.560002 0
0.391273 0.62774 0
0.358977 0.646752 0
0.391273 0.62774 0
0.358977 0.646752 0
0.45294 0.726675 0
0.415553 0.748683 0
0.45294 0.726675 0
0.415553 0.748683 0
0.525398 0.842924 0
0.482031 0.868453 0
0.525398 0.842924 0
0.482031 0.868453 0
0.610537 0.979516 0
0.560141 1.00918 0
0.610537 0.979516 0
0.560141 1.00918 0
0.710575 1.14001 0
0.651922 1.17454 0
0.710575 1.14001 0
0.651922 1.17454 0
0.828119 1.32859 0
0.759764 1.36883 0
0.828119 1.32859 0
0.759764 1.36883 0
0.966234 1.55018 0
0.886478 1.59713 0
0.966234 1.55018 0
0.886478 1.59713 0
1.12852 1.81054 0
1.03537 1.86537 0
1.12852 1.81054 0
1.03537 1.86537 0
1.3192 2.11647 0
1.21031 2.18057 0
1.3192 2.11647 0
1.21031 2.18057 0
1.54326 2.47593 0
1.41587 2.55091 0
1.54326 2.47593 0
1.41587 2.55091 0
1.80652 2.89829 0
1.65741 2.98607 0
1.80652 2.89829 0
1.65741 2.98607 0
2.11586 3.39458 0
1.94121 3.49739 0
0.0485302 0.0874347 0
0.0440394 0.0897805 0
0.0507786 0.0914856 0
0.0460798 0.09394 0
0.0507786 0.0914856 0
0.0460798 0.09394 0
0.0534205 0.0962454 0
0.0484772 0.0988275 0
0.0534205 0.0962454 0
0.0484772 0.0988275 0
0.0565248 0.101838 0
0.0512942 0.10457 0
0.0565248 0.101838 0
0.0512942 0.10457 0
0.0601722 0.10841 0
0.0546042 0.111318 0
0.0601722 0.10841 0
0.0546042 0.111318 0
0.064458 0.116131 0
0.0584934 0.119247 0
0.064458 0.116131 0
0.0584934 0.119247 0
0.0694938 0.125204 0
0.0630632 0.128563 0
0.0694938 0.125204 0
0.0630632 0.128563 0
0.0754109 0.135864 0
0.0684327 0.13951 0
0.0754109 0.135864 0
0.0684327 0.13951 0
0.0823634 0.14839 0
0.0747419 0.152372 0
0.0823634 0.14839 0
0.0747419 0.152372 0
0.0905327 0.163109 0
0.0821552 0.167485 0
0.0905327 0.163109 0
0.0821552 0.167485 0
0.100132 0.180402 0
0.0908658 0.185243 0
0.100132 0.180402 0
0.0908658 0.185243 0
0.11141 0.200723 0
0.101101 0.206108 0
0.11141 0.200723 0
0.101101 0.206108 0
0.124663 0.224599 0
0.113127 0.230625 0
0.124663 0.224599 0
0.113127 0.230625 0
0.140234 0.252654 0
0.127258 0.259432 0
0.140234 0.252654 0
0.127258 0.259432 0
0.158531 0.285618 0
0.143861 0.293281 0
0.158531 0.285618 0
0.143861 0.293281 0
0.180029 0.324351 0
0.16337 0.333053 0
0.180029 0.324351 0
0.16337 0.333053 0
0.20529 0.369862 0
0.186294 0.379785 0
0.20529 0.369862 0
0.186294 0.379785 0
0.234972 0.423338 0
0.213228 0.434696 0
0.234972 0.423338 0
0.213228 0.434696 0
0.269847 0.486172 0
0.244877 0.499215 0
0.269847 0.486172 0
0.244877 0.499215 0
0.310826 0.560002 0
0.282064 0.575026 0
0.310826 0.560002 0
0.282064 0.575026 0
0.358977 0.646752 0
0.325758 0.664104 0
0.358977 0.646752 0
0.325758 0.664104 0
0.415553 0.748683 0
0.3771 0.76877 0
0.415553 0.748683 0
0.3771 0.76877 0
0.482031 0.868453 0
0.437425 0.891752 0
0.482031 0.868453 0
0.437425 0.891752 0
0.560141 1.00918 0
0.508308 1.03626 0
0.560141 1.00918 0
0.508308 1.03626 0
0.651922 1.17454 0
0.591596 1.20605 0
0.651922 1.17454 0
0.591596 1.20605 0
0.759764 1.36883 0
0.689458 1.40556 0
0.759764 1.36883 0
0.689458 1.40556 0
0.886478 1.59713 0
0.804447 1.63998 0
0.886478 1.59713 0
0.804447 1.63998 0
1.03537 1.86537 0
0.939559 1.91542 0
1.03537 1.86537 0
0.939559 1.91542 0
1.21031 2.18057 0
1.09832 2.23907 0
1.21031 2.18057 0
1.09832 2.23907 0
1.41587 2.55091 0
1.28485 2.61935 0
1.41587 2.55091 0
1.28485 2.61935 0
1.65741 2.98607 0
1.50404 3.06619 0
1.65741 2.98607 0
1.50404 3.06619 0
1.94121 3.49739 0
1.76158 3.59122 0
0.0440394 0.0897805 0
0.0394356 0.0918958 0
0.0460798 0.09394 0
0.0412627 0.0961534 0
0.0460798 0.09394 0
0.0412627 0.0961534 0
0.0484772 0.0988275 0
0.0434095 0.101156 0
0.0484772 0.0988275 0
0.0434095 0.101156 0
0.0512942 0.10457 0
0.045932 0.107034 0
0.0512942 0.10457 0
0.045932 0.107034 0
0.0546042 0.111318 0
0.0488959 0.113941 0
0.0546042 0.111318 0
0.0488959 0.113941 0
0.0584934 0.119247 0
0.0523785 0.122056 0
0.0584934 0.119247 0
0.0523785 0.122056 0
0.0630632 0.128563 0
0.0564706 0.131592 0
0.0630632 0.128563 0
0.0564706 0.131592 0
0.0684327 0.13951 0
0.0612788 0.142797 0
0.0684327 0.13951 0
0.0612788 0.142797 0
0.0747419 0.152372 0
0.0669284 0.155962 0
0.0747419 0.152372 0
0.0669284 0.155962 0
0.0821552 0.167485 0
0.0735668 0.171431 0
0.0821552 0.167485 0
0.0735668 0.171431 0
0.0908658 0.185243 0
0.0813668 0.189607 0
0.0908658 0.185243 0
0.0813668 0.189607 0
0.101101 0.206108 0
0.0905318 0.210964 0
0.101101 0.206108 0
0.0905318 0.210964 0
0.113127 0.230625 0
0.101301 0.236059 0
0.113127 0.230625 0
0.101301 0.236059 0
0.127258 0.259432 0
0.113954 0.265545 0
0.127258 0.259432 0
0.113954 0.265545 0
0.143861 0.293281 0
0.128822 0.300191 0
0.143861 0.293281 0
0.128822 0.300191 0
0.16337 0.333053 0
0.146292 0.3409 0
0.16337 0.333053 0
0.146292 0.3409 0
0.186294 0.379785 0
0.166819 0.388733 0
0.186294 0.379785 0
0.166819 0.388733 0
0.213228 0.434696 0
0.190938 0.444938 0
0.213228 0.434696 0
0.190938 0.444938 0
0.244877 0.499215 0
0.219278 0.510977 0
0.244877 0.499215 0
0.219278 0.510977 0
0.282064 0.575026 0
0.252577 0.588574 0
0.282064 0.575026 0
0.252577 0.588574 0
0.325758 0.664104 0
0.291704 0.679751 0
0.325758 0.664104 0
0.291704 0.679751 0
0.3771 0.76877 0
0.337678 0.786883 0
0.3771 0.76877 0
0.337678 0.786883 0
0.437425 0.891752 0
0.391697 0.912763 0
0.437425 0.891752 0
0.391697 0.912763 0
0.508308 1.03626 0
0.45517 1.06067 0
0.508308 1.03626 0
0.45517 1.06067 0
0.591596 1.20605 0
0.529751 1.23447 0
0.591596 1.20605 0
0.529751 1.23447 0
0.689458 1.40556 0
0.617383 1.43867 0
0.689458 1.40556 0
0.617383 1.43867 0
0.804447 1.63998 0
0.720351 1.67862 0
0.804447 1.63998 0
0.720351 1.67862 0
0.939559 1.91542 0
0.841339 1.96055 0
0.939559 1.91542 0
0.841339 1.96055 0
1.09832 2.23907 0
0.983499 2.29182 0
1.09832 2.23907 0
0.983499 2.29182 0
1.28485 2.61935 0
1.15054 2.68107 0
1.28485 2.61935 0
1.15054 2.68107 0
1.50404 3.06619 0
1.34681 3.13843 0
1.50404 3.06619 0
1.34681 3.13843 0
1.76158 3.59122 0
1.57742 3.67583 0
0.0394356 0.0918958 0
0.0347305 0.0937752 0
0.0412627 0.0961534 0
0.0363396 0.0981199 0
0.0412627 0.0961534 0
0.0363396 0.0981199 0
0.0434095 0.101156 0
0.0382303 0.103225 0
0.0434095 0.101156 0
0.0382303 0.103225 0
0.045932 0.107034 0
0.0404518 0.109223 0
0.045932 0.107034 0
0.0404518 0.109223 0
0.0488959 0.113941 0
0.0430621 0.116271 0
0.0488959 0.113941 0
0.0430621 0.116271 0
0.0523785 0.122056 0
0.0461292 0.124553 0
0.0523785 0.122056 0
0.0461292 0.124553 0
0.0564706 0.131592 0
0.0497331 0.134283 0
0.0564706 0.131592 0
0.0497331 0.134283 0
0.0612788 0.142797 0
0.0539676 0.145717 0
0.0612788 0.142797 0
0.0539676 0.145717 0
0.0669284 0.155962 0
0.0589432 0.159151 0
0.0669284 0.155962 0
0.0589432 0.159151 0
0.0735668 0.171431 0
0.0647895 0.174937 0
0.0735668 0.171431 0
0.0647895 0.174937 0
0.0813668 0.189607 0
0.0716589 0.193485 0
0.0813668 0.189607 0
0.0716589 0.193485 0
0.0905318 0.210964 0
0.0797305 0.215279 0
0.0905318 0.210964 0
0.0797305 0.215279 0
0.101301 0.236059 0
0.0892145 0.240886 0
0.101301 0.236059 0
0.0892145 0.240886 0
0.113954 0.265545 0
0.100358 0.270976 0
0.113954 0.265545 0
0.100358 0.270976 0
0.128822 0.300191 0
0.113452 0.30633 0
0.128822 0.300191 0
0.113452 0.30633 0
0.146292 0.3409 0
0.128838 0.347872 0
0.146292 0.3409 0
0.128838 0.347872 0
0.166819 0.388733 0
0.146916 0.396684 0
0.166819 0.388733 0
0.146916 0.396684 0
0.190938 0.444938 0
0.168157 0.454037 0
0.190938 0.444938 0
0.168157 0.454037 0
0.219278 0.510977 0
0.193116 0.521428 0
0.219278 0.510977 0
0.193116 0.521428 0
0.252577 0.588574 0
0.222442 0.600612 0
0.252577 0.588574 0
0.222442 0.600612 0
0.291704 0.679751 0
0.256901 0.693653 0
0.291704 0.679751 0
0.256901 0.693653 0
0.337678 0.786883 0
0.29739 0.802976 0
0.337678 0.786883 0
0.29739 0.802976 0
0.391697 0.912763 0
0.344964 0.931431 0
0.391697 0.912763 0
0.344964 0.931431 0
0.45517 1.06067 0
0.400864 1.08237 0
0.45517 1.06067 0
0.400864 1.08237 0
0.529751 1.23447 0
0.466546 1.25971 0
0.529751 1.23447 0
0.466546 1.25971 0
0.617383 1.43867 0
0.543723 1.4681 0
0.617383 1.43867 0
0.543723 1.4681 0
0.720351 1.67862 0
0.634406 1.71295 0
0.720351 1.67862 0
0.634406 1.71295 0
0.841339 1.96055 0
0.740958 2.00065 0
0.841339 1.96055 0
0.740958 2.00065 0
0.983499 2.29182 0
0.866157 2.33869 0
0.983499 2.29182 0
0.866157 2.33869 0
1.15054 2.68107 0
1.01327 2.7359 0
1.15054 2.68107 0
1.01327 2.7359 0
1.34681 3.13843 0
1.18612 3.20262 0
1.34681 3.13843 0
1.18612 3.20262 0
1.57742 3.67583 0
1.38922 3.75101 0
0.0347305 0.0937752 0
0.0299363 0.0954139 0
0.0363396 0.0981199 0
0.0313233 0.0998345 0
0.0363396 0.0981199 0
0.0313233 0.0998345 0
0.0382303 0.103225 0
0.032953 0.105029 0
0.0382303 0.103225 0
0.032953 0.105029 0
0.0404518 0.109223 0
0.0348678 0.111132 0
0.0404518 0.109223 0
0.0348678 0.111132 0
0.0430621 0.116271 0
0.0371178 0.118303 0
0.0430621 0.116271 0
0.0371178 0.118303 0
0.0461292 0.124553 0
0.0397615 0.126729 0
0.0461292 0.124553 0
0.0397615 0.126729 0
0.0497331 0.134283 0
0.0428679 0.13663 0
0.0497331 0.134283 0
0.0428679 0.13663 0
0.0539676 0.145717 0
0.0465179 0.148263 0
0.0539676 0.145717 0
0.0465179 0.148263 0
0.0589432 0.159151 0
0.0508067 0.161933 0
0.0589432 0.159151 0
0.0508067 0.161933 0
0.0647895 0.174937 0
0.0558459 0.177994 0
0.0647895 0.174937 0
0.0558459 0.177994 0
0.0716589 0.193485 0
0.0617671 0.196866 0
0.0716589 0.193485 0
0.0617671 0.196866 0
0.0797305 0.215279 0
0.0687245 0.219041 0
0.0797305 0.215279 0
0.0687245 0.219041 0
0.0892145 0.240886 0
0.0768993 0.245096 0
0.0892145 0.240886 0
0.0768993 0.245096 0
0.100358 0.270976 0
0.0865048 0.275711 0
0.100358 0.270976 0
0.0865048 0.275711 0
0.113452 0.30633 0
0.0977913 0.311683 0
0.113452 0.30633 0
0.0977913 0.311683 0
0.128838 0.347872 0
0.111053 0.353951 0
0.128838 0.347872 0
0.111053 0.353951 0
0.146916 0.396684 0
0.126635 0.403616 0
0.146916 0.396684 0
0.126635 0.403616 0
0.168157 0.454037 0
0.144945 0.461972 0
0.168157 0.454037 0
0.144945 0.461972 0
0.193116 0.521428 0
0.166458 0.53054 0
0.193116 0.521428 0
0.166458 0.53054 0
0.222442 0.600612 0
0.191736 0.611107 0
0.222442 0.600612 0
0.191736 0.611107 0
0.256901 0.693653 0
0.221438 0.705774 0
0.256901 0.693653 0
0.221438 0.705774 0
0.29739 0.802976 0
0.256338 0.817008 0
0.29739 0.802976 0
0.256338 0.817008 0
0.344964 0.931431 0
0.297345 0.947707 0
0.344964 0.931431 0
0.297345 0.947707 0
0.400864 1.08237 0
0.345529 1.10128 0
0.400864 1.08237 0
0.345529 1.10128 0
0.466546 1.25971 0
0.402144 1.28173 0
0.466546 1.25971 0
0.402144 1.28173 0
0.543723 1.4681 0
0.468668 1.49375 0
0.543723 1.4681 0
0.468668 1.49375 0
0.634406 1.71295 0
0.546832 1.74288 0
0.634406 1.71295 0
0.546832 1.74288 0
0.740958 2.00065 0
0.638676 2.03561 0
0.740958 2.00065 0
0.638676 2.03561 0
0.866157 2.33869 0
0.746593 2.37956 0
0.866157 2.33869 0
0.746593 2.37956 0
1.01327 2.7359 0
0.873395 2.78371 0
1.01327 2.7359 0
0.873395 2.78371 0
1.18612 3.20262 0
1.02239 3.25858 0
1.18612 3.20262 0
1.02239 3.25858 0
1.38922 3.75101 0
1.19745 3.81656 0
0.0299363 0.0954139 0
0.0250653 0.0968077 0
0.0313233 0.0998345 0
0.0262265 0.101293 0
0.0313233 0.0998345 0
0.0262265 0.101293 0
0.032953 0.105029 0
0.0275911 0.106563 0
0.032953 0.105029 0
0.0275911 0.106563 0
0.0348678 0.111132 0
0.0291944 0.112755 0
0.0348678 0.111132 0
0.0291944 0.112755 0
0.0371178 0.118303 0
0.0310782 0.120031 0
0.0371178 0.118303 0
0.0310782 0.120031 0
0.0397615 0.126729 0
0.0332918 0.12858 0
0.0397615 0.126729 0
0.0332918 0.12858 0
0.0428679 0.13663 0
0.0358927 0.138626 0
0.0428679 0.13663 0
0.0358927 0.138626 0
0.0465179 0.148263 0
0.0389488 0.150429 0
0.0465179 0.148263 0
0.0389488 0.150429 0
0.0508067 0.161933 0
0.0425397 0.164298 0
0.0508067 0.161933 0
0.0425397 0.164298 0
0.0558459 0.177994 0
0.046759 0.180594 0
0.0558459 0.177994 0
0.046759 0.180594 0
0.0617671 0.196866 0
0.0517167 0.199742 0
0.0617671 0.196866 0
0.0517167 0.199742 0
0.0687245 0.219041 0
0.057542 0.22224 0
0.0687245 0.219041 0
0.057542 0.22224 0
0.0768993 0.245096 0
0.0643867 0.248676 0
0.0768993 0.245096 0
0.0643867 0.248676 0
0.0865048 0.275711 0
0.0724293 0.279738 0
0.0865048 0.275711 0
0.0724293 0.279738 0
0.0977913 0.311683 0
0.0818793 0.316236 0
0.0977913 0.311683 0
0.0818793 0.316236 0
0.111053 0.353951 0
0.092983 0.359122 0
0.111053 0.353951 0
0.092983 0.359122 0
0.126635 0.403616 0
0.10603 0.409512 0
0.126635 0.403616 0
0.10603 0.409512 0
0.144945 0.461972 0
0.12136 0.46872 0
0.144945 0.461972 0
0.12136 0.46872 0
0.166458 0.53054 0
0.139373 0.53829 0
0.166458 0.53054 0
0.139373 0.53829 0
0.191736 0.611107 0
0.160538 0.620034 0
0.191736 0.611107 0
0.160538 0.620034 0
0.221438 0.705774 0
0.185407 0.716084 0
0.221438 0.705774 0
0.185407 0.716084 0
0.256338 0.817008 0
0.214628 0.828943 0
0.256338 0.817008 0
0.214628 0.828943 0
0.297345 0.947707 0
0.248963 0.961551 0
0.297345 0.947707 0
0.248963 0.961551 0
0.345529 1.10128 0
0.289306 1.11737 0
0.345529 1.10128 0
0.289306 1.11737 0
0.402144 1.28173 0
0.33671 1.30045 0
0.402144 1.28173 0
0.33671 1.30045 0
0.468668 1.49375 0
0.392409 1.51557 0
0.468668 1.49375 0
0.392409 1.51557 0
0.546832 1.74288 0
0.457855 1.76834 0
0.546832 1.74288 0
0.457855 1.76834 0
0.638676 2.03561 0
0.534755 2.06534 0
0.638676 2.03561 0
0.534755 2.06534 0
0.746593 2.37956 0
0.625112 2.41432 0
0.746593 2.37956 0
0.625112 2.41432 0
0.873395 2.78371 0
0.731281 2.82437 0
0.873395 2.78371 0
0.731281 2.82437 0
1.02239 3.25858 0
0.85603 3.30618 0
1.02239 3.25858 0
0.85603 3.30618 0
1.19745 3.81656 0
1.00261 3.87231 0
0.0250653 0.0968077 0
0.0201299 0.097953 0
0.0262265 0.101293 0
0.0210625 0.102491 0
0.0262265 0.101293 0
0.0210625 0.102491 0
0.0275911 0.106563 0
0.0221583 0.107824 0
0.0275911 0.106563 0
0.0221583 0.107824 0
0.0291944 0.112755 0
0.0234459 0.114089 0
0.0291944 0.112755 0
0.0234459 0.114089 0
0.0310782 0.120031 0
0.0249589 0.121451 0
0.0310782 0.120031 0
0.0249589 0.121451 0
0.0332918 0.12858 0
0.0267366 0.130102 0
0.0332918 0.12858 0
0.0267366 0.130102 0
0.0358927 0.138626 0
0.0288254 0.140266 0
0.0358927 0.138626 0
0.0288254 0.140266 0
0.0389488 0.150429 0
0.0312797 0.152209 0
0.0389488 0.150429 0
0.0312797 0.152209 0
0.0425397 0.164298 0
0.0341636 0.166242 0
0.0425397 0.164298 0
0.0341636 0.166242 0
0.046759 0.180594 0
0.0375521 0.182731 0
0.046759 0.180594 0
0.0375521 0.182731 0
0.0517167 0.199742 0
0.0415336 0.202105 0
0.0517167 0.199742 0
0.0415336 0.202105 0
0.057542 0.22224 0
0.0462119 0.22487 0
0.057542 0.22224 0
0.0462119 0.22487 0
0.0643867 0.248676 0
0.0517089 0.251618 0
0.0643867 0.248676 0
0.0517089 0.251618 0
0.0724293 0.279738 0
0.0581678 0.283048 0
0.0724293 0.279738 0
0.0581678 0.283048 0
0.0818793 0.316236 0
0.0657571 0.319978 0
0.0818793 0.316236 0
0.0657571 0.319978 0
0.092983 0.359122 0
0.0746745 0.36337 0
0.092983 0.359122 0
0.0746745 0.36337 0
0.10603 0.409512 0
0.0851524 0.414356 0
0.10603 0.409512 0
0.0851524 0.414356 0
0.12136 0.46872 0
0.097464 0.474265 0
0.12136 0.46872 0
0.097464 0.474265 0
0.139373 0.53829 0
0.11193 0.544658 0
0.139373 0.53829 0
0.11193 0.544658 0
0.160538 0.620034 0
0.128928 0.62737 0
0.160538 0.620034 0
0.128928 0.62737 0
0.185407 0.716084 0
0.1489 0.724556 0
0.185407 0.716084 0
0.1489 0.724556 0
0.214628 0.828943 0
0.172367 0.838749 0
0.214628 0.828943 0
0.172367 0.838749 0
0.248963 0.961551 0
0.199942 0.972927 0
0.248963 0.961551 0
0.199942 0.972927 0
0.289306 1.11737 0
0.232341 1.13059 0
0.289306 1.11737 0
0.232341 1.13059 0
0.33671 1.30045 0
0.270411 1.31583 0
0.33671 1.30045 0
0.270411 1.31583 0
0.392409 1.51557 0
0.315143 1.5335 0
0.392409 1.51557 0
0.315143 1.5335 0
0.457855 1.76834 0
0.367703 1.78926 0
0.457855 1.76834 0
0.367703 1.78926 0
0.534755 2.06534 0
0.42946 2.08978 0
0.534755 2.06534 0
0.42946 2.08978 0
0.625112 2.41432 0
0.502026 2.44289 0
0.625112 2.41432 0
0.502026 2.44289 0
0.731281 2.82437 0
0.58729 2.85779 0
0.731281 2.82437 0
0.58729 2.85779 0
0.85603 3.30618 0
0.687476 3.3453 0
0.85603 3.30618 0
0.687476 3.3453 0
1.00261 3.87231 0
0.805194 3.91812 0
0.0201299 0.097953 0
0.0151428 0.0988468 0
0.0210625 0.102491 0
0.0158444 0.103426 0
0.0210625 0.102491 0
0.0158444 0.103426 0
0.0221583 0.107824 0
0.0166687 0.108808 0
0.0221583 0.107824 0
0.0166687 0.108808 0
0.0234459 0.114089 0
0.0176373 0.11513 0
0.0234459 0.114089 0
0.0176373 0.11513 0
0.0249589 0.121451 0
0.0187754 0.122559 0
0.0249589 0.121451 0
0.0187754 0.122559 0
0.0267366 0.130102 0
0.0201127 0.131289 0
0.0267366 0.130102 0
0.0201127 0.131289 0
0.0288254 0.140266 0
0.021684 0.141546 0
0.0288254 0.140266 0
0.021684 0.141546 0
0.0312797 0.152209 0
0.0235303 0.153598 0
0.0312797 0.152209 0
0.0235303 0.153598 0
0.0341636 0.166242 0
0.0256997 0.167759 0
0.0341636 0.166242 0
0.0256997 0.167759 0
0.0375521 0.182731 0
0.0282487 0.184398 0
0.0375521 0.182731 0
0.0282487 0.184398 0
0.0415336 0.202105 0
0.0312438 0.203949 0
0.0415336 0.202105 0
0.0312438 0.203949 0
0.0462119 0.22487 0
0.0347631 0.226922 0
0.0462119 0.22487 0
0.0347631 0.226922 0
0.0517089 0.251618 0
0.0388982 0.253914 0
0.0517089 0.251618 0
0.0388982 0.253914 0
0.0581678 0.283048 0
0.043757 0.285631 0
0.0581678 0.283048 0
0.043757 0.285631 0
0.0657571 0.319978 0
0.0494661 0.322897 0
0.0657571 0.319978 0
0.0494661 0.322897 0
0.0746745 0.36337 0
0.0561742 0.366686 0
0.0746745 0.36337 0
0.0561742 0.366686 0
0.0851524 0.414356 0
0.0640563 0.418137 0
0.0851524 0.414356 0
0.0640563 0.418137 0
0.097464 0.474265 0
0.0733177 0.478593 0
0.097464 0.474265 0
0.0733177 0.478593 0
0.11193 0.544658 0
0.0841999 0.549628 0
0.11193 0.544658 0
0.0841999 0.549628 0
0.128928 0.62737 0
0.0969865 0.633094 0
0.128928 0.62737 0
0.0969865 0.633094 0
0.1489 0.724556 0
0.112011 0.731167 0
0.1489 0.724556 0
0.112011 0.731167 0
0.172367 0.838749 0
0.129664 0.846403 0
0.172367 0.838749 0
0.129664 0.846403 0
0.199942 0.972927 0
0.150407 0.981805 0
0.199942 0.972927 0
0.150407 0.981805 0
0.232341 1.13059 0
0.17478 1.1409 0
0.232341 1.13059 0
0.17478 1.1409 0
0.270411 1.31583 0
0.203418 1.32784 0
0.270411 1.31583 0
0.203418 1.32784 0
0.315143 1.5335 0
0.237068 1.5475 0
0.315143 1.5335 0
0.237068 1.5475 0
0.367703 1.78926 0
0.276606 1.80559 0
0.367703 1.78926 0
0.276606 1.80559 0
0.42946 2.08978 0
0.323064 2.10885 0
0.42946 2.08978 0
0.323064 2.10885 0
0.502026 2.44289 0
0.377651 2.46518 0
0.502026 2.44289 0
0.377651 2.46518 0
0.58729 2.85779 0
0.441792 2.88387 0
0.58729 2.85779 0
0.441792 2.88387 0
0.687476 3.3453 0
0.517157 3.37582 0
0.687476 3.3453 0
0.517157 3.37582 0
0.805194 3.91812 0
0.605711 3.95387 0
0.0151428 0.0988468 0
0.0101168 0.0994869 0
0.0158444 0.103426 0
0.0105856 0.104096 0
0.0158444 0.103426 0
0.0105856 0.104096 0
0.0166687 0.108808 0
0.0111363 0.109512 0
0.0166687 0.108808 0
0.0111363 0.109512 0
0.0176373 0.11513 0
0.0117834 0.115876 0
0.0176373 0.11513 0
0.0117834 0.115876 0
0.0187754 0.122559 0
0.0125438 0.123353 0
0.0187754 0.122559 0
0.0125438 0.123353 0
0.0201127 0.131289 0
0.0134372 0.132139 0
0.0201127 0.131289 0
0.0134372 0.132139 0
0.021684 0.141546 0
0.014487 0.142462 0
0.021684 0.141546 0
0.014487 0.142462 0
0.0235303 0.153598 0
0.0157205 0.154592 0
0.0235303 0.153598 0
0.0157205 0.154592 0
0.0256997 0.167759 0
0.0171699 0.168845 0
0.0256997 0.167759 0
0.0171699 0.168845 0
0.0282487 0.184398 0
0.0188729 0.185592 0
0.0282487 0.184398 0
0.0188729 0.185592 0
0.0312438 0.203949 0
0.0208739 0.20527 0
0.0312438 0.203949 0
0.0208739 0.20527 0
0.0347631 0.226922 0
0.0232251 0.228391 0
0.0347631 0.226922 0
0.0232251 0.228391 0
0.0388982 0.253914 0
0.0259878 0.255559 0
0.0388982 0.253914 0
0.0259878 0.255559 0
0.043757 0.285631 0
0.0292339 0.28748 0
0.043757 0.285631 0
0.0292339 0.28748 0
0.0494661 0.322897 0
0.0330481 0.324988 0
0.0494661 0.322897 0
0.0330481 0.324988 0
0.0561742 0.366686 0
0.0375298 0.36906 0
0.0561742 0.366686 0
0.0375298 0.36906 0
0.0640563 0.418137 0
0.0427958 0.420845 0
0.0640563 0.418137 0
0.0427958 0.420845 0
0.0733177 0.478593 0
0.0489833 0.481692 0
0.0733177 0.478593 0
0.0489833 0.481692 0
0.0841999 0.549628 0
0.0562536 0.553187 0
0.0841999 0.549628 0
0.0562536 0.553187 0
0.0969865 0.633094 0
0.0647963 0.637194 0
0.0969865 0.633094 0
0.0647963 0.637194 0
0.112011 0.731167 0
0.0748339 0.735902 0
0.112011 0.731167 0
0.0748339 0.735902 0
0.129664 0.846403 0
0.0866281 0.851884 0
0.129664 0.846403 0
0.0866281 0.851884 0
0.150407 0.981805 0
0.100486 0.988163 0
0.150407 0.981805 0
0.100486 0.988163 0
0.17478 1.1409 0
0.11677 1.14829 0
0.17478 1.1409 0
0.11677 1.14829 0
0.203418 1.32784 0
0.135903 1.33644 0
0.203418 1.32784 0
0.135903 1.33644 0
0.237068 1.5475 0
0.158384 1.55752 0
0.237068 1.5475 0
0.158384 1.55752 0
0.276606 1.80559 0
0.184799 1.81728 0
0.276606 1.80559 0
0.184799 1.81728 0
0.323064 2.10885 0
0.215838 2.1225 0
0.323064 2.10885 0
0.215838 2.1225 0
0.377651 2.46518 0
0.252307 2.48114 0
0.377651 2.46518 0
0.252307 2.48114 0
0.441792 2.88387 0
0.295159 2.90254 0
0.441792 2.88387 0
0.295159 2.90254 0
0.517157 3.37582 0
0.345511 3.39768 0
0.517157 3.37582 0
0.345511 3.39768 0
0.605711 3.95387 0
0.404673 3.97948 0
0.0101168 0.0994869 0
0.00506492 0.0998717 0
0.0105856 0.104096 0
0.00529958 0.104499 0
0.0105856 0.104096 0
0.00529958 0.104499 0
0.0111363 0.109512 0
0.0055753 0.109936 0
0.0111363 0.109512 0
0.0055753 0.109936 0
0.0117834 0.115876 0
0.00589928 0.116324 0
0.0117834 0.115876 0
0.00589928 0.116324 0
0.0125438 0.123353 0
0.00627995 0.12383 0
0.0125438 0.123353 0
0.00627995 0.12383 0
0.0134372 0.132139 0
0.00672725 0.13265 0
0.0134372 0.132139 0
0.00672725 0.13265 0
0.014487 0.142462 0
0.00725281 0.143013 0
0.014487 0.142462 0
0.00725281 0.143013 0
0.0157205 0.154592 0
0.00787036 0.15519 0
0.0157205 0.154592 0
0.00787036 0.15519 0
0.0171699 0.168845 0
0.00859597 0.169498 0
0.0171699 0.168845 0
0.00859597 0.169498 0
0.0188729 0.185592 0
0.00944856 0.18631 0
0.0188729 0.185592 0
0.00944856 0.18631 0
0.0208739 0.20527 0
0.0104504 0.206064 0
0.0208739 0.20527 0
0.0104504 0.206064 0
0.0232251 0.228391 0
0.0116275 0.229274 0
0.0232251 0.228391 0
0.0116275 0.229274 0
0.0259878 0.255559 0
0.0130106 0.256547 0
0.0259878 0.255559 0
0.0130106 0.256547 0
0.0292339 0.28748 0
0.0146357 0.288592 0
0.0292339 0.28748 0
0.0146357 0.288592 0
0.0330481 0.324988 0
0.0165453 0.326245 0
0.0330481 0.324988 0
0.0165453 0.326245 0
0.0375298 0.36906 0
0.018789 0.370488 0
0.0375298 0.36906 0
0.018789 0.370488 0
0.0427958 0.420845 0
0.0214254 0.422473 0
0.0427958 0.420845 0
0.0214254 0.422473 0
0.0489833 0.481692 0
0.0245231 0.483555 0
0.0489833 0.481692 0
0.0245231 0.483555 0
0.0562536 0.553187 0
0.028163 0.555326 0
0.0562536 0.553187 0
0.028163 0.555326 0
0.0647963 0.637194 0
0.0324398 0.639658 0
0.0647963 0.637194 0
0.0324398 0.639658 0
0.0748339 0.735902 0
0.0374651 0.738748 0
0.0748339 0.735902 0
0.0374651 0.738748 0
0.0866281 0.851884 0
0.0433697 0.855178 0
0.0866281 0.851884 0
0.0433697 0.855178 0
0.100486 0.988163 0
0.0503077 0.991984 0
0.100486 0.988163 0
0.0503077 0.991984 0
0.11677 1.14829 0
0.0584599 1.15273 0
0.11677 1.14829 0
0.0584599 1.15273 0
0.135903 1.33644 0
0.0680387 1.34161 0
0.135903 1.33644 0
0.0680387 1.34161 0
0.158384 1.55752 0
0.0792937 1.56354 0
0.158384 1.55752 0
0.0792937 1.56354 0
0.184799 1.81728 0
0.0925184 1.82431 0
0.184799 1.81728 0
0.0925184 1.82431 0
0.215838 2.1225 0
0.108057 2.13071 0
0.215838 2.1225 0
0.108057 2.13071 0
0.252307 2.48114 0
0.126316 2.49074 0
0.252307 2.48114 0
0.126316 2.49074 0
0.295159 2.90254 0
0.147769 2.91376 0
0.295159 2.90254 0
0.147769 2.91376 0
0.345511 3.39768 0
0.172977 3.41082 0
0.345511 3.39768 0
0.172977 3.41082 0
0.404673 3.97948 0
0.202597 3.99487 0
0.00506492 0.0998717 0
0 0.1 0
0.00529958 0.104499 0
0 0.104633 0
0.00529958 0.104499 0
0 0.104633 0
0.0055753 0.109936 0
0 0.110077 0
0.0055753 0.109936 0
0 0.110077 0
0.00589928 0.116324 0
0 0.116473 0
0.00589928 0.116324 0
0 0.116473 0
0.00627995 0.12383 0
0 0.123989 0
0.00627995 0.12383 0
0 0.123989 0
0.00672725 0.13265 0
0 0.13282 0
0.00672725 0.13265 0
0 0.13282 0
0.00725281 0.143013 0
0 0.143197 0
0.00725281 0.143013 0
0 0.143197 0
0.00787036 0.15519 0
0 0.15539 0
0.00787036 0.15519 0
0 0.15539 0
0.00859597 0.169498 0
0 0.169716 0
0.00859597 0.169498 0
0 0.169716 0
0.00944856 0.18631 0
0 0.186549 0
0.00944856 0.18631 0
0 0.186549 0
0.0104504 0.206064 0
0 0.206328 0
0.0104504 0.206064 0
0 0.206328 0
0.0116275 0.229274 0
0 0.229569 0
0.0116275 0.229274 0
0 0.229569 0
0.0130106 0.256547 0
0 0.256876 0
0.0130106 0.256547 0
0 0.256876 0
0.0146357 0.288592 0
0 0.288963 0
0.0146357 0.288592 0
0 0.288963 0
0.0165453 0.326245 0
0 0.326664 0
0.0165453 0.326245 0
0 0.326664 0
0.018789 0.370488 0
0 0.370964 0
0.018789 0.370488 0
0 0.370964 0
0.0214254 0.422473 0
0 0.423015 0
0.0214254 0.422473 0
0 0.423015 0
0.0245231 0.483555 0
0 0.484176 0
0.0245231 0.483555 0
0 0.484176 0
0.028163 0.555326 0
0 0.55604 0
0.028163 0.555326 0
0 0.55604 0
0.0324398 0.639658 0
0 0.64048 0
0.0324398 0.639658 0
0 0.64048 0
0.0374651 0.738748 0
0 0.739697 0
0.0374651 0.738748 0
0 0.739697 0
0.0433697 0.855178 0
0 0.856277 0
0.0433697 0.855178 0
0 0.856277 0
0.0503077 0.991984 0
0 0.993259 0
0.0503077 0.991984 0
0 0.993259 0
0.0584599 1.15273 0
0 1.15421 0
0.0584599 1.15273 0
0 1.15421 0
0.0680387 1.34161 0
0 1.34333 0
0.0680387 1.34161 0
0 1.34333 0
0.0792937 1.56354 0
0 1.56555 0
0.0792937 1.56354 0
0 1.56555 0
0.0925184 1.82431 0
0 1.82665 0
0.0925184 1.82431 0
0 1.82665 0
0.108057 2.13071 0
0 2.13345 0
0.108057 2.13071 0
0 2.13345 0
0.126316 2.49074 0
0 2.49394 0
0.126316 2.49074 0
0 2.49394 0
0.147769 2.91376 0
0 2.91751 0
0.147769 2.91376 0
0 2.91751 0
0.172977 3.41082 0
0 3.41521 0
0.172977 3.41082 0
0 3.41521 0
0.202597 3.99487 0
0 4 0
0 0.1 0
-0.00506492 0.0998717 0
0 0.104633 0
-0.00529958 0.104499 0
0 0.104633 0
-0.00529958 0.104499 0
0 0.110077 0
-0.0055753 0.109936 0
0 0.110077 0
-0.0055753 0.109936 0
0 0.116473 0
-0.00589928 0.116324 0
0 0.116473 0
-0.00589928 0.116324 0
0 0.123989 0
-0.00627995 0.12383 0
0 0.123989 0
-0.00627995 0.12383 0
0 0.13282 0
-0.00672725 0.13265 0
0 0.13282 0
-0.00672725 0.13265 0
0 0.143197 0
-0.00725281 0.143013 0
0 0.143197 0
-0.00725281 0.143013 0
0 0.15539 0
-0.00787036 0.15519 0
0 0.15539 0
-0.00787036 0.15519 0
0 0.169716 0
-0.00859597 0.169498 0
0 0.169716 0
-0.00859597 0.169498 0
0 0.186549 0
-0.00944856 0.18631 0
0 0.186549 0
-0.00944856 0.18631 0
0 0.206328 0
-0.0104504 0.206064 0
0 0.206328 0
-0.0104504 0.206064 0
0 0.229569 0
-0.0116275 0.229274 0
0 0.229569 0
-0.0116275 0.229274 0
0 0.256876 0
-0.0130106 0.256547 0
0 0.256876 0
-0.0130106 0.256547 0
0 0.288963 0
-0.0146357 0.288592 0
0 0.288963 0
-0.0146357 0.288592 0
0 0.326664 0
-0.0165453 0.326245 0
0 0.326664 0
-0.0165453 0.326245 0
0 0.370964 0
-0.018789 0.370488 0
0 0.370964 0
-0.018789 0.370488 0
0 0.423015 0
-0.0214254 0.422473 0
0 0.423015 0
-0.0214254 0.422473 0
0 0.484176 0
-0.0245231 0.483555 0
0 0.484176 0
-0.0245231 0.483555 0
0 0.55604 0
-0.028163 0.555326 0
0 0.55604 0
-0.028163 0.555326 0
0 0.64048 0
-0.0324398 0.639658 0
0 0.64048 0
-0.0324398 0.639658 0
0 0.739697 0
-0.0374651 0.738748 0
0 0.739697 0
-0.0374651 0.738748 0
0 0.856277 0
-0.0433697 0.855178 0
0 0.856277 0
-0.0433697 0.855178 0
0 0.993259 0
-0.0503077 0.991984 0
0 0.993259 0
-0.0503077 0.991984 0
0 1.15421 0
-0.0584599 1.15273 0
0 1.15421 0
-0.0584599 1.15273 0
0 1.34333 0
-0.0680387 1.34161 0
0 1.34333 0
-0.0680387 1.34161 0
0 1.56555 0
-0.0792937 1.56354 0
0 1.56555 0
-0.0792937 1.56354 0
0 1.82665 0
-0.0925184 1.82431 0
0 1.82665 0
-0.0925184 1.82431 0
0 2.13345 0
-0.108057 2.13071 0
0 2.13345 0
-0.108057 2.13071 0
0 2.49394 0
-0.126316 2.49074 0
0 2.49394 0
-0.126316 2.49074 0
0 2.91751 0
-0.147769 2.91376 0
0 2.91751 0
-0.147769 2.91376 0
0 3.41521 0
-0.172977 3.41082 0
0 3.41521 0
-0.172977 3.41082 0
0 4 0
-0.202597 3.99487 0
-0.00506492 0.0998717 0
-0.0101168 0.0994869 0
-0.00529958 0.104499 0
-0.0105856 0.104096 0
-0.00529958 0.104499 0
-0.0105856 0.104096 0
-0.0055753 0.109936 0
-0.0111363 0.109512 0
-0.0055753 0.109936 0
-0.0111363 0.109512 0
-0.00589928 0.116324 0
-0.0117834 0.115876 0
-0.00589928 0.116324 0
-0.0117834 0.115876 0
-0.00627995 0.12383 0
-0.0125438 0.123353 0
-0.00627995 0.12383 0
-0.0125438 0.123353 0
-0.00672725 0.13265 0
-0.0134372 0.132139 0
-0.00672725 0.13265 0
-0.0134372 0.132139 0
-0.00725281 0.143013 0
-0.014487 0.142462 0
-0.00725281 0.143013 0
-0.014487 0.142462 0
-0.00787036 0.15519 0
-0.0157205 0.154592 0
-0.00787036 0.15519 0
-0.0157205 0.154592 0
-0.00859597 0.169498 0
-0.0171699 0.168845 0
-0.00859597 0.169498 0
-0.0171699 0.168845 0
-0.00944856 0.18631 0
-0.0188729 0.185592 0
-0.00944856 0.18631 0
-0.0188729 0.185592 0
-0.0104504 0.206064 0
-0.0208739 0.20527 0
-0.0104504 0.206064 0
-0.0208739 0.20527 0
-0.0116275 0.229274 0
-0.0232251 0.228391 0
-0.0116275 0.229274 0
-0.0232251 0.228391 0
-0.0130106 0.256547 0
-0.0259878 0.255559 0
-0.0130106 0.256547 0
-0.0259878 0.255559 0
-0.0146357 0.288592 0
-0.0292339 0.28748 0
-0.0146357 0.288592 0
-0.0292339 0.28748 0
-0.0165453 0.326245 0
-0.0330481 0.324988 0
-0.0165453 0.326245 0
-0.0330481 0.324988 0
-0.018789 0.370488 0
-0.0375298 0.36906 0
-0.018789 0.370488 0
-0.0375298 0.36906 0
-0.0214254 0.422473 0
-0.0427958 0.420845 0
-0.0214254 0.422473 0
-0.0427958 0.420845 0
-0.0245231 0.483555 0
-0.0489833 0.481692 0
-0.0245231 0.483555 0
-0.0489833 0.481692 0
-0.028163 0.555326 0
-0.0562536 0.553187 0
-0.028163 0.555326 0
-0.0562536 0.553187 0
-0.0324398 0.639658 0
-0.0647963 0.637194 0
-0.0324398 0.639658 0
-0.0647963 0.637194 0
-0.0374651 0.738748 0
-0.0748339 0.735902 0
-0.0374651 0.738748 0
-0.0748339 0.735902 0
-0.0433697 0.855178 0
-0.0866281 0.851884 0
-0.0433697 0.855178 0
-0.0866281 0.851884 0
-0.0503077 0.991984 0
-0.100486 0.988163 0
-0.0503077 0.991984 0
-0.100486 0.988163 0
-0.0584599 1.15273 0
-0.11677 1.14829 0
-0.0584599 1.15273 0
-0.11677 1.14829 0
-0.0680387 1.34161 0
-0.135903 1.33644 0
-0.0680387 1.34161 0
-0.135903 1.33644 0
-0.0792937 1.56354 0
-0.158384 1.55752 0
-0.0792937 1.56354 0
-0.158384 1.55752 0
-0.0925184 1.82431 0
-0.184799 1.81728 0
-0.0925184 1.82431 0
-0.184799 1.81728 0
-0.108057 2.13071 0
-0.215838 2.1225 0
-0.108057 2.13071 0
-0.215838 2.1225 0
-0.126316 2.49074 0
-0.252307 2.48114 0
-0.126316 2.49074 0
-0.252307 2.48114 0
-0.147769 2.91376 0
-0.295159 2.90254 0
-0.147769 2.91376 0
-0.295159 2.90254 0
-0.172977 3.41082 0
-0.345511 3.39768 0
-0.172977 3.41082 0
-0.345511 3.39768 0
-0.202597 3.99487 0
-0.404673 3.97948 0
-0.0101168 0.0994869 0
-0.0151428 0.0988468 0
-0.0105856 0.104096 0
-0.0158444 0.103426 0
-0.0105856 0.104096 0
-0.0158444 0.103426 0
-0.0111363 0.109512 0
-0.0166687 0.108808 0
-0.0111363 0.109512 0
-0.0166687 0.108808 0
-0.0117834 0.115876 0
-0.0176373 0.11513 0
-0.0117834 0.115876 0
-0.0176373 0.11513 0
-0.0125438 0.123353 0
-0.0187754 0.122559 0
-0.0125438 0.123353 0
-0.0187754 0.122559 0
-0.0134372 0.132139 0
-0.0201127 0.131289 0
-0.0134372 0.132139 0
-0.0201127 0.131289 0
-0.014487 0.142462 0
-0.021684 0.141546 0
-0.014487 0.142462 0
-0.021684 0.141546 0
-0.0157205 0.154592 0
-0.0235303 0.153598 0
-0.0157205 0.154592 0
-0.0235303 0.153598 0
-0.0171699 0.168845 0
-0.0256997 0.167759 0
-0.0171699 0.168845 0
-0.0256997 0.167759 0
-0.0188729 0.185592 0
-0.0282487 0.184398 0
-0.0188729 0.185592 0
-0.0282487 0.184398 0
-0.0208739 0.20527 0
-0.0312438 0.203949 0
-0.0208739 0.20527 0
-0.0312438 0.203949 0
-0.0232251 0.228391 0
-0.0347631 0.226922 0
-0.0232251 0.228391 0
-0.0347631 0.226922 0
-0.0259878 0.255559 0
-0.0388982 0.253914 0
-0.0259878 0.255559 0
-0.0388982 0.253914 0
-0.0292339 0.28748 0
-0.043757 0.285631 0
-0.0292339 0.28748 0
-0.043757 0.285631 0
-0.0330481 0.324988 0
-0.0494661 0.322897 0
-0.0330481 0.324988 0
-0.0494661 0.322897 0
-0.0375298 0.36906 0
-0.0561742 0.366686 0
-0.0375298 0.36906 0
-0.0561742 0.366686 0
-0.0427958 0.420845 0
-0.0640563 0.418137 0
-0.0427958 0.420845 0
-0.0640563 0.418137 0
-0.0489833 0.481692 0
-0.0733177 0.478593 0
-0.0489833 0.481692 0
-0.0733177 0.478593 0
-0.0562536 0.553187 0
-0.0841999 0.549628 0
-0.0562536 0.553187 0
-0.0841999 0.549628 0
-0.0647963 0.637194 0
-0.0969865 0.633094 0
-0.0647963 0.637194 0
-0.0969865 0.633094 0
-0.0748339 0.735902 0
-0.112011 0.731167 0
-0.0748339 0.735902 0
-0.112011 0.731167 0
-0.0866281 0.851884 0
-0.129664 0.846403 0
-0.0866281 0.851884 0
-0.129664 0.846403 0
-0.100486 0.988163 0
-0.150407 0.981805 0
-0.100486 0.988163 0
-0.150407 0.981805 0
-0.11677 1.14829 0
-0.17478 1.1409 0
-0.11677 1.14829 0
-0.17478 1.1409 0
-0.135903 1.33644 0
-0.203418 1.32784 0
-0.135903 1.33644 0
-0.203418 1.32784 0
-0.158384 1.55752 0
-0.237068 1.5475 0
-0.158384 1.55752 0
-0.237068 1.5475 0
-0.184799 1.81728 0
-0.276606 1.80559 0
-0.184799 1.81728 0
-0.276606 1.80559 0
-0.215838 2.1225 0
-0.323064 2.10885 0
-0.215838 2.1225 0
-0.323064 2.10885 0
-0.252307 2.48114 0
-0.377651 2.46518 0
-0.252307 2.48114 0
-0.377651 2.46518 0
-0.295159 2.90254 0
-0.441792 2.88387 0
-0.295159 2.90254 0
-0.441792 2.88387 0
-0.345511 3.39768 0
-0.517157 3.37582 0
-0.345511 3.39768 0
-0.517157 3.37582 0
-0.404673 3.97948 0
-0.605711 3.95387 0
-0.0151428 0.0988468 0
-0.0201299 0.097953 0
-0.0158444 0.103426 0
-0.0210625 0.102491 0
-0.0158444 0.103426 0
-0.0210625 0.102491 0
-0.0166687 0.108808 0
-0.0221583 0.107824 0
-0.0166687 0.108808 0
-0.0221583 0.107824 0
-0.0176373 0.11513 0
-0.0234459 0.114089 0
-0.0176373 0.11513 0
-0.0234459 0.114089 0
-0.0187754 0.122559 0
-0.0249589 0.121451 0
-0.0187754 0.122559 0
-0.0249589 0.121451 0
-0.0201127 0.131289 0
-0.0267366 0.130102 0
-0.0201127 0.131289 0
-0.0267366 0.130102 0
-0.021684 0.141546 0
-0.0288254 0.140266 0
-0.021684 0.141546 0
-0.0288254 0.140266 0
-0.0235303 0.153598 0
-0.0312797 0.152209 0
-0.0235303 0.153598 0
-0.0312797 0.152209 0
-0.0256997 0.167759 0
-0.0341636 0.166242 0
-0.0256997 0.167759 0
-0.0341636 0.166242 0
-0.0282487 0.184398 0
-0.0375521 0.182731 0
-0.0282487 0.184398 0
-0.0375521 0.182731 0
-0.0312438 0.203949 0
-0.0415336 0.202105 0
-0.0312438 0.203949 0
-0.0415336 0.202105 0
-0.0347631 0.226922 0
-0.0462119 0.22487 0
-0.0347631 0.226922 0
-0.0462119 0.22487 0
-0.0388982 0.253914 0
-0.0517089 0.251618 0
-0.0388982 0.253914 0
-0.0517089 0.251618 0
-0.043757 0.285631 0
-0.0581678 0.283048 0
-0.043757 0.285631 0
-0.0581678 0.283048 0
-0.0494661 0.322897 0
-0.0657571 0.319978 0
-0.0494661 0.322897 0
-0.0657571 0.319978 0
-0.0561742 0.366686 0
-0.0746745 0.36337 0
-0.0561742 0.366686 0
-0.0746745 0.36337 0
-0.0640563 0.418137 0
-0.0851524 0.414356 0
-0.0640563 0.418137 0
-0.0851524 0.414356 0
-0.0733177 0.478593 0
-0.097464 0.474265 0
-0.0733177 0.478593 0
-0.097464 0.474265 0
-0.0841999 0.549628 0
-0.11193 0.544658 0
-0.0841999 0.549628 0
-0.11193 0.544658 0
-0.0969865 0.633094 0
-0.128928 0.62737 0
-0.0969865 0.633094 0
-0.128928 0.62737 0
-0.112011 0.731167 0
-0.1489 0.724556 0
-0.112011 0.731167 0
-0.1489 0.724556 0
-0.129664 0.846403 0
-0.172367 0.838749 0
-0.129664 0.846403 0
-0.172367 0.838749 0
-0.150407 0.981805 0
-0.199942 0.972927 0
-0.150407 0.981805 0
-0.199942 0.972927 0
-0.17478 1.1409 0
-0.232341 1.13059 0
-0.17478 1.1409 0
-0.232341 1.13059 0
-0.203418 1.32784 0
-0.270411 1.31583 0
-0.203418 1.32784 0
-0.270411 1.31583 0
-0.237068 1.5475 0
-0.315143 1.5335 0
-0.237068 1.5475 0
-0.315143 1.5335 0
-0.276606 1.80559 0
-0.367703 1.78926 0
-0.276606 1.80559 0
-0.367703 1.78926 0
-0.323064 2.10885 0
-0.42946 2.08978 0
-0.323064 2.10885 0
-0.42946 2.08978 0
-0.377651 2.46518 0
-0.502026 2.44289 0
-0.377651 2.46518 0
-0.502026 2.44289 0
-0.441792 2.88387 0
-0.58729 2.85779 0
-0.441792 2.88387 0
-0.58729 2.85779 0
-0.517157 3.37582 0
-0.687476 3.3453 0
-0.517157 3.37582 0
-0.687476 3.3453 0
-0.605711 3.95387 0
-0.805194 3.91812 0
-0.0201299 0.097953 0
-0.0250653 0.0968077 0
-0.0210625 0.102491 0
-0.0262265 0.101293 0
-0.0210625 0.102491 0
-0.0262265 0.101293 0
-0.0221583 0.107824 0
-0.0275911 0.106563 0
-0.0221583 0.107824 0
-0.0275911 0.106563 0
-0.0234459 0.114089 0
-0.0291944 0.112755 0
-0.0234459 0.114089 0
-0.0291944 0.112755 0
-0.0249589 0.121451 0
-0.0310782 0.120031 0
-0.0249589 0.121451 0
-0.0310782 0.120031 0
-0.0267366 0.130102 0
-0.0332918 0.12858 0
-0.0267366 0.130102 0
-0.0332918 0.12858 0
-0.0288254 0.140266 0
-0.0358927 0.138626 0
-0.0288254 0.140266 0
-0.0358927 0.138626 0
-0.0312797 0.152209 0
-0.0389488 0.150429 0
-0.0312797 0.152209 0
-0.0389488 0.150429 0
-0.0341636 0.166242 0
-0.0425397 0.164298 0
-0.0341636 0.166242 0
-0.0425397 0.164298 0
-0.0375521 0.182731 0
-0.046759 0.180594 0
-0.0375521 0.182731 0
-0.046759 0.180594 0
-0.0415336 0.202105 0
-0.0517167 0.199742 0
-0.0415336 0.202105 0
-0.0517167 0.199742 0
-0.0462119 0.22487 0
-0.057542 0.22224 0
-0.0462119 0.22487 0
-0.057542 0.22224 0
-0.0517089 0.251618 0
-0.0643867 0.248676 0
-0.0517089 0.251618 0
-0.0643867 0.248676 0
-0.0581678 0.283048 0
-0.0724293 0.279738 0
-0.0581678 0.283048 0
-0.0724293 0.279738 0
-0.0657571 0.319978 0
-0.0818793 0.316236 0
-0.0657571 0.319978 0
-0.0818793 0.316236 0
-0.0746745 0.36337 0
-0.092983 0.359122 0
-0.0746745 0.36337 0
-0.092983 0.359122 0
-0.0851524 0.414356 0
-0.10603 0.409512 0
-0.0851524 0.414356 0
-0.10603 0.409512 0
-0.097464 0.474265 0
-0.12136 0.46872 0
-0.097464 0.474265 0
-0.12136 0.46872 0
-0.11193 0.544658 0
-0.139373 0.53829 0
-0.11193 0.544658 0
-0.139373 0.53829 0
-0.128928 0.62737 0
-0.160538 0.620034 0
-0.128928 0.62737 0
-0.160538 0.620034 0
-0.1489 0.724556 0
-0.185407 0.716084 0
-0.1489 0.724556 0
-0.185407 0.716084 0
-0.172367 0.838749 0
-0.214628 0.828943 0
-0.172367 0.838749 0
-0.214628 0.828943 0
-0.199942 0.972927 0
-0.248963 0.961551 0
-0.199942 0.972927 0
-0.248963 0.961551 0
-0.232341 1.13059 0
-0.289306 1.11737 0
-0.232341 1.13059 0
-0.289306 1.11737 0
-0.270411 1.31583 0
-0.33671 1.30045 0
-0.270411 1.31583 0
-0.33671 1.30045 0
-0.315143 1.5335 0
-0.392409 1.51557 0
-0.315143 1.5335 0
-0.392409 1.51557 0
-0.367703 1.78926 0
-0.457855 1.76834 0
-0.367703 1.78926 0
-0.457855 1.76834 0
-0.42946 2.08978 0
-0.534755 2.06534 0
-0.42946 2.08978 0
-0.534755 2.06534 0
-0.502026 2.44289 0
-0.625112 2.41432 0
-0.502026 2.44289 0
-0.625112 2.41432 0
-0.58729 2.85779 0
-0.731281 2.82437 0
-0.58729 2.85779 0
-0.731281 2.82437 0
-0.687476 3.3453 0
-0.85603 3.30618 0
-0.687476 3.3453 0
-0.85603 3.30618 0
-0.805194 3.91812 0
-1.00261 3.87231 0
-0.0250653 0.0968077 0
-0.0299363 0.0954139 0
-0.0262265 0.101293 0
-0.0313233 0.0998345 0
-0.0262265 0.101293 0
-0.0313233 0.0998345 0
-0.0275911 0.106563 0
-0.032953 0.105029 0
-0.0275911 0.106563 0
-0.032953 0.105029 0
-0.0291944 0.112755 0
-0.0348678 0.111132 0
-0.0291944 0.112755 0
-0.0348678 0.111132 0
-0.0310782 0.120031 0
-0.0371178 0.118303 0
-0.0310782 0.120031 0
-0.0371178 0.118303 0
-0.0332918 0.12858 0
-0.0397615 0.126729 0
-0.0332918 0.12858 0
-0.0397615 0.126729 0
-0.0358927 0.138626 0
-0.0428679 0.13663 0
-0.0358927 0.138626 0
-0.0428679 0.13663 0
-0.0389488 0.150429 0
-0.0465179 0.148263 0
-0.0389488 0.150429 0
-0.0465179 0.148263 0
-0.0425397 0.164298 0
-0.0508067 0.161933 0
-0.0425397 0.164298 0
-0.0508067 0.161933 0
-0.046759 0.180594 0
-0.0558459 0.177994 0
-0.046759 0.180594 0
-0.0558459 0.177994 0
-0.0517167 0.199742 0
-0.0617671 0.196866 0
-0.0517167 0.199742 0
-0.0617671 0.196866 0
-0.057542 0.22224 0
-0.0687245 0.219041 0
-0.057542 0.22224 0
-0.0687245 0.219041 0
-0.0643867 0.248676 0
-0.0768993 0.245096 0
-0.0643867 0.248676 0
-0.0768993 0.245096 0
-0.0724293 0.279738 0
-0.0865048 0.275711 0
-0.0724293 0.279738 0
-0.0865048 0.275711 0
-0.0818793 0.316236 0
-0.0977913 0.311683 0
-0.0818793 0.316236 0
-0.0977913 0.311683 0
-0.092983 0.359122 0
-0.111053 0.353951 0
-0.092983 0.359122 0
-0.111053 0.353951 0
-0.10603 0.409512 0
-0.126635 0.403616 0
-0.10603 0.409512 0
-0.126635 0.403616 0
-0.12136 0.46872 0
-0.144945 0.461972 0
-0.12136 0.46872 0
-0.144945 0.461972 0
-0.139373 0.53829 0
-0.166458 0.53054 0
-0.139373 0.53829 0
-0.166458 0.53054 0
-0.160538 0.620034 0
-0.191736 0.611107 0
-0.160538 0.620034 0
-0.191736 0.611107 0
-0.185407 0.716084 0
-0.221438 0.705774 0
-0.185407 0.716084 0
-0.221438 0.705774 0
-0.214628 0.828943 0
-0.256338 0.817008 0
-0.214628 0.828943 0
-0.256338 0.817008 0
-0.248963 0.961551 0
-0.297345 0.947707 0
-0.248963 0.961551 0
-0.297345 0.947707 0
-0.289306 1.11737 0
-0.345529 1.10128 0
-0.289306 1.11737 0
-0.345529 1.10128 0
-0.33671 1.30045 0
-0.402144 1.28173 0
-0.33671 1.30045 0
-0.402144 1.28173 0
-0.392409 1.51557 0
-0.468668 1.49375 0
-0.392409 1.51557 0
-0.468668 1.49375 0
-0.457855 1.76834 0
-0.546832 1.74288 0
-0.457855 1.76834 0
-0.546832 1.74288 0
-0.534755 2.06534 0
-0.638676 2.03561 0
-0.534755 2.06534 0
-0.638676 2.03561 0
-0.625112 2.41432 0
-0.746593 2.37956 0
-0.625112 2.41432 0
-0.746593 2.37956 0
-0.731281 2.82437 0
-0.873395 2.78371 0
-0.731281 2.82437 0
-0.873395 2.78371 0
-0.85603 3.30618 0
-1.02239 3.25858 0
-0.85603 3.30618 0
-1.02239 3.25858 0
-1.00261 3.87231 0
-1.19745 3.81656 0
-0.0299363 0.0954139 0
-0.0347305 0.0937752 0
-0.0313233 0.0998345 0
-0.0363396 0.0981199 0
-0.0313233 0.0998345 0
-0.0363396 0.0981199 0
-0.032953 0.105029 0
-0.0382303 0.103225 0
-0.032953 0.105029 0
-0.0382303 0.103225 0
-0.0348678 0.111132 0
-0.0404518 0.109223 0
-0.0348678 0.111132 0
-0.0404518 0.109223 0
-0.0371178 0.118303 0
-0.0430621 0.116271 0
-0.0371178 0.118303 0
-0.0430621 0.116271 0
-0.0397615 0.126729 0
-0.0461292 0.124553 0
-0.0397615 0.126729 0
-0.0461292 0.124553 0
-0.0428679 0.13663 0
-0.0497331 0.134283 0
-0.0428679 0.13663 0
-0.0497331 0.134283 0
-0.0465179 0.148263 0
-0.0539676 0.145717 0
-0.0465179 0.148263 0
-0.0539676 0.145717 0
-0.0508067 0.161933 0
-0.0589432 0.159151 0
-0.0508067 0.161933 0
-0.0589432 0.159151 0
-0.0558459 0.177994 0
-0.0647895 0.174937 0
-0.0558459 0.177994 0
-0.0647895 0.174937 0
-0.0617671 0.196866 0
-0.0716589 0.193485 0
-0.0617671 0.196866 0
-0.0716589 0.193485 0
-0.0687245 0.219041 0
-0.0797305 0.215279 0
-0.0687245 0.219041 0
-0.0797305 0.215279 0
-0.0768993 0.245096 0
-0.0892145 0.240886 0
-0.0768993 0.245096 0
-0.0892145 0.240886 0
-0.0865048 0.275711 0
-0.100358 0.270976 0
-0.0865048 0.275711 0
-0.100358 0.270976 0
-0.0977913 0.311683 0
-0.113452 0.30633 0
-0.0977913 0.311683 0
-0.113452 0.30633 0
-0.111053 0.353951 0
-0.128838 0.347872 0
-0.111053 0.353951 0
-0.128838 0.347872 0
-0.126635 0.403616 0
-0.146916 0.396684 0
-0.126635 0.403616 0
-0.146916 0.396684 0
-0.144945 0.461972 0
-0.168157 0.454037 0
-0.144945 0.461972 0
-0.168157 0.454037 0
-0.166458 0.53054 0
-0.193116 0.521428 0
-0.166458 0.53054 0
-0.193116 0.521428 0
-0.191736 0.611107 0
-0.222442 0.600612 0
-0.191736 0.611107 0
-0.222442 0.600612 0
-0.221438 0.705774 0
-0.256901 0.693653 0
-0.221438 0.705774 0
-0.256901 0.693653 0
-0.256338 0.817008 0
-0.29739 0.802976 0
-0.256338 0.817008 0
-0.29739 0.802976 0
-0.297345 0.947707 0
-0.344964 0.931431 0
-0.297345 0.947707 0
-0.344964 0.931431 0
-0.345529 1.10128 0
-0.400864 1.08237 0
-0.345529 1.10128 0
-0.400864 1.08237 0
-0.402144 1.28173 0
-0.466546 1.25971 0
-0.402144 1.28173 0
-0.466546 1.25971 0
-0.468668 1.49375 0
-0.543723 1.4681 0
-0.468668 1.49375 0
-0.543723 1.4681 0
-0.546832 1.74288 0
-0.634406 1.71295 0
-0.546832 1.74288 0
-0.634406 1.71295 0
-0.638676 2.03561 0
-0.740958 2.00065 0
-0.638676 2.03561 0
-0.740958 2.00065 0
-0.746593 2.37956 0
-0.866157 2.33869 0
-0.746593 2.37956 0
-0.866157 2.33869 0
-0.873395 2.78371 0
-1.01327 2.7359 0
-0.873395 2.78371 0
-1.01327 2.7359 0
-1.02239 3.25858 0
-1.18612 3.20262 0
-1.02239 3.25858 0
-1.18612 3.20262 0
-1.19745 3.81656 0
-1.38922 3.75101 0
-0.0347305 0.0937752 0
-0.0394356 0.0918958 0
-0.0363396 0.0981199 0
-0.0412627 0.0961534 0
-0.0363396 0.0981199 0
-0.0412627 0.0961534 0
-0.0382303 0.103225 0
-0.0434095 0.101156 0
-0.0382303 0.103225 0
-0.0434095 0.101156 0
-0.0404518 0.109223 0
-0.045932 0.107034 0
-0.0404518 0.109223 0
-0.045932 0.107034 0
-0.0430621 0.116271 0
-0.0488959 0.113941 0
-0.0430621 0.116271 0
-0.0488959 0.113941 0
-0.0461292 0.124553 0
-0.0523785 0.122056 0
-0.0461292 0.124553 0
-0.0523785 0.122056 0
-0.0497331 0.134283 0
-0.0564706 0.131592 0
-0.0497331 0.134283 0
-0.0564706 0.131592 0
-0.0539676 0.145717 0
-0.0612788 0.142797 0
-0.0539676 0.145717 0
-0.0612788 0.142797 0
-0.0589432 0.159151 0
-0.0669284 0.155962 0
-0.0589432 0.159151 0
-0.0669284 0.155962 0
-0.0647895 0.174937 0
-0.0735668 0.171431 0
-0.0647895 0.174937 0
-0.0735668 0.171431 0
-0.0716589 0.193485 0
-0.0813668 0.189607 0
-0.0716589 0.193485 0
-0.0813668 0.189607 0
-0.0797305 0.215279 0
-0.0905318 0.210964 0
-0.0797305 0.215279 0
-0.0905318 0.210964 0
-0.0892145 0.240886 0
-0.101301 0.236059 0
-0.0892145 0.240886 0
-0.101301 0.236059 0
-0.100358 0.270976 0
-0.113954 0.265545 0
-0.100358 0.270976 0
-0.113954 0.265545 0
-0.113452 0.30633 0
-0.128822 0.300191 0
-0.113452 0.30633 0
-0.128822 0.300191 0
-0.128838 0.347872 0
-0.146292 0.3409 0
-0.128838 0.347872 0
-0.146292 0.3409 0
-0.146916 0.396684 0
-0.166819 0.388733 0
-0.146916 0.396684 0
-0.166819 0.388733 0
-0.168157 0.454037 0
-0.190938 0.444938 0
-0.168157 0.454037 0
-0.190938 0.444938 0
-0.193116 0.521428 0
-0.219278 0.510977 0
-0.193116 0.521428 0
-0.219278 0.510977 0
-0.222442 0.600612 0
-0.252577 0.588574 0
-0.222442 0.600612 0
-0.252577 0.588574 0
-0.256901 0.693653 0
-0.291704 0.679751 0
-0.256901 0.693653 0
-0.291704 0.679751 0
-0.29739 0.802976 0
-0.337678 0.786883 0
-0.29739 0.802976 0
-0.337678 0.786883 0
-0.344964 0.931431 0
-0.391697 0.912763 0
-0.344964 0.931431 0
-0.391697 0.912763 0
-0.400864 1.08237 0
-0.45517 1.06067 0
-0.400864 1.08237 0
-0.45517 1.06067 0
-0.466546 1.25971 0
-0.529751 1.23447 0
-0.466546 1.25971 0
-0.529751 1.23447 0
-0.543723 1.4681 0
-0.617383 1.43867 0
-0.543723 1.4681 0
-0.617383 1.43867 0
-0.634406 1.71295 0
-0.720351 1.67862 0
-0.634406 1.71295 0
-0.720351 1.67862 0
-0.740958 2.00065 0
-0.841339 1.96055 0
-0.740958 2.00065 0
-0.841339 1.96055 0
-0.866157 2.33869 0
-0.983499 2.29182 0
-0.866157 2.33869 0
-0.983499 2.29182 0
-1.01327 2.7359 0
-1.15054 2.68107 0
-1.01327 2.7359 0
-1.15054 2.68107 0
-1.18612 3.20262 0
-1.34681 3.13843 0
-1.18612 3.20262 0
-1.34681 3.13843 0
-1.38922 3.75101 0
-1.57742 3.67583 0
-0.0394356 0.0918958 0
-0.0440394 0.0897805 0
-0.0412627 0.0961534 0
-0.0460798 0.09394 0
-0.0412627 0.0961534 0
-0.0460798 0.09394 0
-0.0434095 0.101156 0
-0.0484772 0.0988275 0
-0.0434095 0.101156 0
-0.0484772 0.0988275 0
-0.045932 0.107034 0
-0.0512942 0.10457 0
-0.045932 0.107034 0
-0.0512942 0.10457 0
-0.0488959 0.113941 0
-0.0546042 0.111318 0
-0.0488959 0.113941 0
-0.0546042 0.111318 0
-0.0523785 0.122056 0
-0.0584934 0.119247 0
-0.0523785 0.122056 0
-0.0584934 0.119247 0
-0.0564706 0.131592 0
-0.0630632 0.128563 0
-0.0564706 0.131592 0
-0.0630632 0.128563 0
-0.0612788 0.142797 0
-0.0684327 0.13951 0
-0.0612788 0.142797 0
-0.0684327 0.13951 0
-0.0669284 0.155962 0
-0.0747419 0.152372 0
-0.0669284 0.155962 0
-0.0747419 0.152372 0
-0.0735668 0.171431 0
-0.0821552 0.167485 0
-0.0735668 0.171431 0
-0.0821552 0.167485 0
-0.0813668 0.189607 0
-0.0908658 0.185243 0
-0.0813668 0.189607 0
-0.0908658 0.185243 0
-0.0905318 0.210964 0
-0.101101 0.206108 0
-0.0905318 0.210964 0
-0.101101 0.206108 0
-0.101301 0.236059 0
-0.113127 0.230625 0
-0.101301 0.236059 0
-0.113127 0.230625 0
-0.113954 0.265545 0
-0.127258 0.259432 0
-0.113954 0.265545 0
-0.127258 0.259432 0
-0.128822 0.300191 0
-0.143861 0.293281 0
-0.128822 0.300191 0
-0.143861 0.293281 0
-0.146292 0.3409 0
-0.16337 0.333053 0
-0.146292 0.3409 0
-0.16337 0.333053 0
-0.166819 0.388733 0
-0.186294 0.379785 0
-0.166819 0.388733 0
-0.186294 0.379785 0
-0.190938 0.444938 0
-0.213228 0.434696 0
-0.190938 0.444938 0
-0.213228 0.434696 0
-0.219278 0.510977 0
-0.244877 0.499215 0
-0.219278 0.510977 0
-0.244877 0.499215 0
-0.252577 0.588574 0
-0.282064 0.575026 0
-0.252577 0.588574 0
-0.282064 0.575026 0
-0.291704 0.679751 0
-0.325758 0.664104 0
-0.291704 0.679751 0
-0.325758 0.664104 0
-0.337678 0.786883 0
-0.3771 0.76877 0
-0.337678 0.786883 0
-0.3771 0.76877 0
-0.391697 0.912763 0
-0.437425 0.891752 0
-0.391697 0.912763 0
-0.437425 0.891752 0
-0.45517 1.06067 0
-0.508308 1.03626 0
-0.45517 1.06067 0
-0.508308 1.03626 0
-0.529751 1.23447 0
-0.591596 1.20605 0
-0.529751 1.23447 0
-0.591596 1.20605 0
-0.617383 1.43867 0
-0.689459 1.40556 0
-0.617383 1.43867 0
-0.689459 1.40556 0
-0.720351 1.67862 0
-0.804447 1.63998 0
-0.720351 1.67862 0
-0.804447 1.63998 0
-0.841339 1.96055 0
-0.939559 1.91542 0
-0.841339 1.96055 0
-0.939559 1.91542 0
-0.983499 2.29182 0
-1.09832 2.23907 0
-0.983499 2.29182 0
-1.09832 2.23907 0
-1.15054 2.68107 0
-1.28485 2.61935 0
-1.15054 2.68107 0
-1.28485 2.61935 0
-1.34681 3.13843 0
-1.50404 3.06619 0
-1.34681 3.13843 0
-1.50404 3.06619 0
-1.57742 3.67583 0
-1.76158 3.59122 0
-0.0440394 0.0897805 0
-0.0485302 0.0874347 0
-0.0460798 0.09394 0
-0.0507786 0.0914856 0
-0.0460798 0.09394 0
-0.0507786 0.0914856 0
-0.0484772 0.0988275 0
-0.0534205 0.0962454 0
-0.0484772 0.0988275 0
-0.0534205 0.0962454 0
-0.0512942 0.10457 0
-0.0565248 0.101838 0
-0.0512942 0.10457 0
-0.0565248 0.101838 0
-0.0546042 0.111318 0
-0.0601722 0.10841 0
-0.0546042 0.111318 0
-0.0601722 0.10841 0
-0.0584934 0.119247 0
-0.064458 0.116131 0
-0.0584934 0.119247 0
-0.064458 0.116131 0
-0.0630632 0.128563 0
-0.0694938 0.125204 0
-0.0630632 0.128563 0
-0.0694938 0.125204 0
-0.0684327 0.13951 0
-0.0754109 0.135864 0
-0.0684327 0.13951 0
-0.0754109 0.135864 0
-0.0747419 0.152372 0
-0.0823634 0.14839 0
-0.0747419 0.152372 0
-0.0823634 0.14839 0
-0.0821552 0.167485 0
-0.0905327 0.163109 0
-0.0821552 0.167485 0
-0.0905327 0.163109 0
-0.0908658 0.185243 0
-0.100132 0.180402 0
-0.0908658 0.185243 0
-0.100132 0.180402 0
-0.101101 0.206108 0
-0.11141 0.200723 0
-0.101101 0.206108 0
-0.11141 0.200723 0
-0.113127 0.230625 0
-0.124663 0.224599 0
-0.113127 0.230625 0
-0.124663 0.224599 0
-0.127258 0.259432 0
-0.140234 0.252654 0
-0.127258 0.259432 0
-0.140234 0.252654 0
-0.143861 0.293281 0
-0.158531 0.285618 0
-0.143861 0.293281 0
-0.158531 0.285618 0
-0.16337 0.333053 0
-0.180029 0.324351 0
-0.16337 0.333053 0
-0.180029 0.324351 0
-0.186294 0.379785 0
-0.20529 0.369862 0
-0.186294 0.379785 0
-0.20529 0.369862 0
-0.213228 0.434696 0
-0.234972 0.423338 0
-0.213228 0.434696 0
-0.234972 0.423338 0
-0.244877 0.499215 0
-0.269847 0.486172 0
-0.244877 0.499215 0
-0.269847 0.486172 0
-0.282064 0.575026 0
-0.310826 0.560002 0
-0.282064 0.575026 0
-0.310826 0.560002 0
-0.325758 0.664104 0
-0.358977 0.646752 0
-0.325758 0.664104 0
-0.358977 0.646752 0
-0.3771 0.76877 0
-0.415553 0.748683 0
-0.3771 0.76877 0
-0.415553 0.748683 0
-0.437425 0.891752 0
-0.482031 0.868453 0
-0.437425 0.891752 0
-0.482031 0.868453 0
-0.508308 1.03626 0
-0.560141 1.00918 0
-0.508308 1.03626 0
-0.560141 1.00918 0
-0.591596 1.20605 0
-0.651922 1.17454 0
-0.591596 1.20605 0
-0.651922 1.17454 0
-0.689459 1.40556 0
-0.759764 1.36883 0
-0.689459 1.40556 0
-0.759764 1.36883 0
-0.804447 1.63998 0
-0.886478 1.59713 0
-0.804447 1.63998 0
-0.886478 1.59713 0
-0.939559 1.91542 0
-1.03537 1.86537 0
-0.939559 1.91542 0
-1.03537 1.86537 0
-1.09832 2.23907 0
-1.21031 2.18057 0
-1.09832 2.23907 0
-1.21031 2.18057 0
-1.28485 2.61935 0
-1.41587 2.55091 0
-1.28485 2.61935 0
-1.41587 2.55091 0
-1.50404 3.06619 0
-1.65741 2.98607 0
-1.50404 3.06619 0
-1.65741 2.98607 0
-1.76158 3.59122 0
-1.94121 3.49739 0
-0.0485302 0.0874347 0
-0.0528964 0.0848644 0
-0.0507786 0.0914856 0
-0.0553471 0.0887962 0
-0.0507786 0.0914856 0
-0.0553471 0.0887962 0
-0.0534205 0.0962454 0
-0.0582267 0.0934161 0
-0.0534205 0.0962454 0
-0.0582267 0.0934161 0
-0.0565248 0.101838 0
-0.0616102 0.0988445 0
-0.0565248 0.101838 0
-0.0616102 0.0988445 0
-0.0601722 0.10841 0
-0.0655859 0.105223 0
-0.0601722 0.10841 0
-0.0655859 0.105223 0
-0.064458 0.116131 0
-0.0702572 0.112717 0
-0.064458 0.116131 0
-0.0702572 0.112717 0
-0.0694938 0.125204 0
-0.0757461 0.121523 0
-0.0694938 0.125204 0
-0.0757461 0.121523 0
-0.0754109 0.135864 0
-0.0821955 0.131871 0
-0.0754109 0.135864 0
-0.0821955 0.131871 0
-0.0823634 0.14839 0
-0.0897736 0.144028 0
-0.0823634 0.14839 0
-0.0897736 0.144028 0
-0.0905327 0.163109 0
-0.0986778 0.158314 0
-0.0905327 0.163109 0
-0.0986778 0.158314 0
-0.100132 0.180402 0
-0.10914 0.175099 0
-0.100132 0.180402 0
-0.10914 0.175099 0
-0.11141 0.200723 0
-0.121434 0.194822 0
-0.11141 0.200723 0
-0.121434 0.194822 0
-0.124663 0.224599 0
-0.135878 0.217997 0
-0.124663 0.224599 0
-0.135878 0.217997 0
-0.140234 0.252654 0
-0.152851 0.245227 0
-0.140234 0.252654 0
-0.152851 0.245227 0
-0.158531 0.285618 0
-0.172794 0.277222 0
-0.158531 0.285618 0
-0.172794 0.277222 0
-0.180029 0.324351 0
-0.196226 0.314816 0
-0.180029 0.324351 0
-0.196226 0.314816 0
-0.20529 0.369862 0
-0.22376 0.35899 0
-0.20529 0.369862 0
-0.22376 0.35899 0
-0.234972 0.423338 0
-0.256112 0.410893 0
-0.234972 0.423338 0
-0.256112 0.410893 0
-0.269847 0.486172 0
-0.294125 0.47188 0
-0.269847 0.486172 0
-0.294125 0.47188 0
-0.310826 0.560002 0
-0.338791 0.54354 0
-0.310826 0.560002 0
-0.338791 0.54354 0
-0.358977 0.646752 0
-0.391273 0.62774 0
-0.358977 0.646752 0
-0.391273 0.62774 0
-0.415553 0.748683 0
-0.45294 0.726675 0
-0.415553 0.748683 0
-0.45294 0.726675 0
-0.482031 0.868453 0
-0.525398 0.842923 0
-0.482031 0.868453 0
-0.525398 0.842923 0
-0.560141 1.00918 0
-0.610537 0.979516 0
-0.560141 1.00918 0
-0.610537 0.979516 0
-0.651922 1.17454 0
-0.710575 1.14001 0
-0.651922 1.17454 0
-0.710575 1.14001 0
-0.759764 1.36883 0
-0.828119 1.32859 0
-0.759764 1.36883 0
-0.828119 1.32859 0
-0.886478 1.59713 0
-0.966234 1.55018 0
-0.886478 1.59713 0
-0.966234 1.55018 0
-1.03537 1.86537 0
-1.12852 1.81054 0
-1.03537 1.86537 0
-1.12852 1.81054 0
-1.21031 2.18057 0
-1.3192 2.11647 0
-1.21031 2.18057 0
-1.3192 2.11647 0
-1.41587 2.55091 0
-1.54326 2.47593 0
-1.41587 2.55091 0
-1.54326 2.47593 0
-1.65741 2.98607 0
-1.80652 2.89829 0
-1.65741 2.98607 0
-1.80652 2.89829 0
-1.94121 3.49739 0
-2.11586 3.39458 0
-0.0528964 0.0848644 0
-0.0571268 0.0820763 0
-0.0553471 0.0887962 0
-0.0597735 0.085879 0
-0.0553471 0.0887962 0
-0.0597735 0.085879 0
-0.0582267 0.0934161 0
-0.0628834 0.0903471 0
-0.0582267 0.0934161 0
-0.0628834 0.0903471 0
-0.0616102 0.0988445 0
-0.0665375 0.0955971 0
-0.0616102 0.0988445 0
-0.0665375 0.0955971 0
-0.0655859 0.105223 0
-0.0708311 0.101766 0
-0.0655859 0.105223 0
-0.0708311 0.101766 0
-0.0702572 0.112717 0
-0.0758761 0.109014 0
-0.0702572 0.112717 0
-0.0758761 0.109014 0
-0.0757461 0.121523 0
-0.0818039 0.117531 0
-0.0757461 0.121523 0
-0.0818039 0.117531 0
-0.0821955 0.131871 0
-0.0887692 0.127538 0
-0.0821955 0.131871 0
-0.0887692 0.127538 0
-0.0897736 0.144028 0
-0.0969533 0.139297 0
-0.0897736 0.144028 0
-0.0969533 0.139297 0
-0.0986778 0.158314 0
-0.10657 0.153113 0
-0.0986778 0.158314 0
-0.10657 0.153113 0
-0.10914 0.175099 0
-0.117869 0.169347 0
-0.10914 0.175099 0
-0.117869 0.169347 0
-0.121434 0.194822 0
-0.131145 0.188422 0
-0.121434 0.194822 0
-0.131145 0.188422 0
-0.135878 0.217997 0
-0.146745 0.210835 0
-0.135878 0.217997 0
-0.146745 0.210835 0
-0.152851 0.245227 0
-0.165075 0.23717 0
-0.152851 0.245227 0
-0.165075 0.23717 0
-0.172794 0.277222 0
-0.186613 0.268114 0
-0.172794 0.277222 0
-0.186613 0.268114 0
-0.196226 0.314816 0
-0.21192 0.304474 0
-0.196226 0.314816 0
-0.21192 0.304474 0
-0.22376 0.35899 0
-0.241655 0.347196 0
-0.22376 0.35899 0
-0.241655 0.347196 0
-0.256112 0.410893 0
-0.276595 0.397394 0
-0.256112 0.410893 0
-0.276595 0.397394 0
-0.294125 0.47188 0
-0.317648 0.456377 0
-0.294125 0.47188 0
-0.317648 0.456377 0
-0.338791 0.54354 0
-0.365886 0.525683 0
-0.338791 0.54354 0
-0.365886 0.525683 0
-0.391273 0.62774 0
-0.422566 0.607116 0
-0.391273 0.62774 0
-0.422566 0.607116 0
-0.45294 0.726675 0
-0.489164 0.702801 0
-0.45294 0.726675 0
-0.489164 0.702801 0
-0.525398 0.842923 0
-0.567417 0.815231 0
-0.525398 0.842923 0
-0.567417 0.815231 0
-0.610537 0.979516 0
-0.659365 0.947335 0
-0.610537 0.979516 0
-0.659365 0.947335 0
-0.710575 1.14001 0
-0.767403 1.10256 0
-0.710575 1.14001 0
-0.767403 1.10256 0
-0.828119 1.32859 0
-0.894348 1.28495 0
-0.828119 1.32859 0
-0.894348 1.28495 0
-0.966234 1.55018 0
-1.04351 1.49925 0
-0.966234 1.55018 0
-1.04351 1.49925 0
-1.12852 1.81054 0
-1.21877 1.75106 0
-1.12852 1.81054 0
-1.21877 1.75106 0
-1.3192 2.11647 0
-1.42471 2.04693 0
-1.3192 2.11647 0
-1.42471 2.04693 0
-1.54326 2.47593 0
-1.66668 2.39458 0
-1.54326 2.47593 0
-1.66668 2.39458 0
-1.80652 2.89829 0
-1.951 2.80308 0
-1.80652 2.89829 0
-1.951 2.80308 0
-2.11586 3.39458 0
-2.28507 3.28305 0
-0.0571268 0.0820763 0
-0.0612106 0.0790776 0
-0.0597735 0.085879 0
-0.0640465 0.0827413 0
-0.0597735 0.085879 0
-0.0640465 0.0827413 0
-0.0628834 0.0903471 0
-0.0673787 0.0870461 0
-0.0628834 0.0903471 0
-0.0673787 0.0870461 0
-0.0665375 0.0955971 0
-0.0712941 0.0921043 0
-0.0665375 0.0955971 0
-0.0712941 0.0921043 0
-0.0708311 0.101766 0
-0.0758946 0.0980477 0
-0.0708311 0.101766 0
-0.0758946 0.0980477 0
-0.0758761 0.109014 0
-0.0813002 0.105031 0
-0.0758761 0.109014 0
-0.0813002 0.105031 0
-0.0818039 0.117531 0
-0.0876518 0.113237 0
-0.0818039 0.117531 0
-0.0876518 0.113237 0
-0.0887692 0.127538 0
-0.0951149 0.122878 0
-0.0887692 0.127538 0
-0.0951149 0.122878 0
-0.0969533 0.139297 0
-0.103884 0.134207 0
-0.0969533 0.139297 0
-0.103884 0.134207 0
-0.10657 0.153113 0
-0.114188 0.147519 0
-0.10657 0.153113 0
-0.114188 0.147519 0
-0.117869 0.169347 0
-0.126295 0.163159 0
-0.117869 0.169347 0
-0.126295 0.163159 0
-0.131145 0.188422 0
-0.14052 0.181537 0
-0.131145 0.188422 0
-0.14052 0.181537 0
-0.146745 0.210835 0
-0.157236 0.203132 0
-0.146745 0.210835 0
-0.157236 0.203132 0
-0.165075 0.23717 0
-0.176876 0.228505 0
-0.165075 0.23717 0
-0.176876 0.228505 0
-0.186613 0.268114 0
-0.199953 0.258318 0
-0.186613 0.268114 0
-0.199953 0.258318 0
-0.21192 0.304474 0
-0.227069 0.293349 0
-0.21192 0.304474 0
-0.227069 0.293349 0
-0.241655 0.347196 0
-0.25893 0.33451 0
-0.241655 0.347196 0
-0.25893 0.33451 0
-0.276595 0.397394 0
-0.296367 0.382875 0
-0.276595 0.397394 0
-0.296367 0.382875 0
-0.317648 0.456377 0
-0.340356 0.439703 0
-0.317648 0.456377 0
-0.340356 0.439703 0
-0.365886 0.525683 0
-0.392042 0.506476 0
-0.365886 0.525683 0
-0.392042 0.506476 0
-0.422566 0.607116 0
-0.452773 0.584935 0
-0.422566 0.607116 0
-0.452773 0.584935 0
-0.489164 0.702801 0
-0.524132 0.677123 0
-0.489164 0.702801 0
-0.524132 0.677123 0
-0.567417 0.815231 0
-0.60798 0.785445 0
-0.567417 0.815231 0
-0.60798 0.785445 0
-0.659365 0.947335 0
-0.7065 0.912723 0
-0.659365 0.947335 0
-0.7065 0.912723 0
-0.767403 1.10256 0
-0.822262 1.06227 0
-0.767403 1.10256 0
-0.822262 1.06227 0
-0.894348 1.28495 0
-0.958282 1.238 0
-0.894348 1.28495 0
-0.958282 1.238 0
-1.04351 1.49925 0
-1.11811 1.44447 0
-1.04351 1.49925 0
-1.11811 1.44447 0
-1.21877 1.75106 0
-1.3059 1.68708 0
-1.21877 1.75106 0
-1.3059 1.68708 0
-1.42471 2.04693 0
-1.52655 1.97214 0
-1.42471 2.04693 0
-1.52655 1.97214 0
-1.66668 2.39458 0
-1.78582 2.3071 0
-1.66668 2.39458 0
-1.78582 2.3071 0
-1.951 2.80308 0
-2.09047 2.70066 0
-1.951 2.80308 0
-2.09047 2.70066 0
-2.28507 3.28305 0
-2.44842 3.1631 0
-0.0612106 0.0790776 0
-0.0651372 0.0758758 0
-0.0640465 0.0827413 0
-0.0681551 0.0793912 0
-0.0640465 0.0827413 0
-0.0681551 0.0793912 0
-0.0673787 0.0870461 0
-0.0717011 0.0835217 0
-0.0673787 0.0870461 0
-0.0717011 0.0835217 0
-0.0712941 0.0921043 0
-0.0758676 0.0883751 0
-0.0712941 0.0921043 0
-0.0758676 0.0883751 0
-0.0758946 0.0980477 0
-0.0807632 0.0940779 0
-0.0758946 0.0980477 0
-0.0807632 0.0940779 0
-0.0813002 0.105031 0
-0.0865156 0.100779 0
-0.0813002 0.105031 0
-0.0865156 0.100779 0
-0.0876518 0.113237 0
-0.0932746 0.108652 0
-0.0876518 0.113237 0
-0.0932746 0.108652 0
-0.0951149 0.122878 0
-0.101217 0.117903 0
-0.0951149 0.122878 0
-0.101217 0.117903 0
-0.103884 0.134207 0
-0.110548 0.128773 0
-0.103884 0.134207 0
-0.110548 0.128773 0
-0.114188 0.147519 0
-0.121513 0.141546 0
-0.114188 0.147519 0
-0.121513 0.141546 0
-0.126295 0.163159 0
-0.134397 0.156553 0
-0.126295 0.163159 0
-0.134397 0.156553 0
-0.14052 0.181537 0
-0.149535 0.174187 0
-0.14052 0.181537 0
-0.149535 0.174187 0
-0.157236 0.203132 0
-0.167322 0.194907 0
-0.157236 0.203132 0
-0.167322 0.194907 0
-0.176876 0.228505 0
-0.188222 0.219253 0
-0.176876 0.228505 0
-0.188222 0.219253 0
-0.199953 0.258318 0
-0.21278 0.247859 0
-0.199953 0.258318 0
-0.21278 0.247859 0
-0.227069 0.293349 0
-0.241636 0.281472 0
-0.227069 0.293349 0
-0.241636 0.281472 0
-0.25893 0.33451 0
-0.275541 0.320966 0
-0.25893 0.33451 0
-0.275541 0.320966 0
-0.296367 0.382875 0
-0.315379 0.367373 0
-0.296367 0.382875 0
-0.315379 0.367373 0
-0.340356 0.439703 0
-0.362189 0.4219 0
-0.340356 0.439703 0
-0.362189 0.4219 0
-0.392042 0.506476 0
-0.417191 0.48597 0
-0.392042 0.506476 0
-0.417191 0.48597 0
-0.452773 0.584935 0
-0.481818 0.561251 0
-0.452773 0.584935 0
-0.481818 0.561251 0
-0.524132 0.677123 0
-0.557756 0.649707 0
-0.524132 0.677123 0
-0.557756 0.649707 0
-0.60798 0.785445 0
-0.646982 0.753643 0
-0.60798 0.785445 0
-0.646982 0.753643 0
-0.7065 0.912723 0
-0.751822 0.875768 0
-0.7065 0.912723 0
-0.751822 0.875768 0
-0.822262 1.06227 0
-0.87501 1.01926 0
-0.822262 1.06227 0
-0.87501 1.01926 0
-0.958282 1.238 0
-1.01976 1.18787 0
-0.958282 1.238 0
-1.01976 1.18787 0
-1.11811 1.44447 0
-1.18983 1.38599 0
-1.11811 1.44447 0
-1.18983 1.38599 0
-1.3059 1.68708 0
-1.38967 1.61877 0
-1.3059 1.68708 0
-1.38967 1.61877 0
-1.52655 1.97214 0
-1.62448 1.89229 0
-1.52655 1.97214 0
-1.62448 1.89229 0
-1.78582 2.3071 0
-1.90038 2.21368 0
-1.78582 2.3071 0
-1.90038 2.21368 0
-2.09047 2.70066 0
-2.22457 2.59132 0
-2.09047 2.70066 0
-2.22457 2.59132 0
-2.44842 3.1631 0
-2.60549 3.03503 0
-0.0651372 0.0758758 0
-0.0688967 0.0724793 0
-0.0681551 0.0793912 0
-0.0720887 0.0758373 0
-0.0681551 0.0793912 0
-0.0720887 0.0758373 0
-0.0717011 0.0835217 0
-0.0758393 0.0797829 0
-0.0717011 0.0835217 0
-0.0758393 0.0797829 0
-0.0758676 0.0883751 0
-0.0802463 0.0844191 0
-0.0758676 0.0883751 0
-0.0802463 0.0844191 0
-0.0807632 0.0940779 0
-0.0854245 0.0898665 0
-0.0807632 0.0940779 0
-0.0854245 0.0898665 0
-0.0865156 0.100779 0
-0.0915089 0.0962673 0
-0.0865156 0.100779 0
-0.0915089 0.0962673 0
-0.0932746 0.108652 0
-0.0986581 0.103788 0
-0.0932746 0.108652 0
-0.0986581 0.103788 0
-0.101217 0.117903 0
-0.107058 0.112625 0
-0.101217 0.117903 0
-0.107058 0.112625 0
-0.110548 0.128773 0
-0.116929 0.123009 0
-0.110548 0.128773 0
-0.116929 0.123009 0
-0.121513 0.141546 0
-0.128526 0.13521 0
-0.121513 0.141546 0
-0.128526 0.13521 0
-0.134397 0.156553 0
-0.142153 0.149545 0
-0.134397 0.156553 0
-0.142153 0.149545 0
-0.149535 0.174187 0
-0.158165 0.16639 0
-0.149535 0.174187 0
-0.158165 0.16639 0
-0.167322 0.194907 0
-0.176979 0.186182 0
-0.167322 0.194907 0
-0.176979 0.186182 0
-0.188222 0.219253 0
-0.199086 0.209438 0
-0.188222 0.219253 0
-0.199086 0.209438 0
-0.21278 0.247859 0
-0.225061 0.236764 0
-0.21278 0.247859 0
-0.225061 0.236764 0
-0.241636 0.281472 0
-0.255582 0.268872 0
-0.241636 0.281472 0
-0.255582 0.268872 0
-0.275541 0.320966 0
-0.291444 0.306599 0
-0.275541 0.320966 0
-0.291444 0.306599 0
-0.315379 0.367373 0
-0.333581 0.350927 0
-0.315379 0.367373 0
-0.333581 0.350927 0
-0.362189 0.4219 0
-0.383093 0.403014 0
-0.362189 0.4219 0
-0.383093 0.403014 0
-0.417191 0.48597 0
-0.44127 0.464215 0
-0.417191 0.48597 0
-0.44127 0.464215 0
-0.481818 0.561251 0
-0.509627 0.536127 0
-0.481818 0.561251 0
-0.509627 0.536127 0
-0.557756 0.649707 0
-0.589947 0.620624 0
-0.557756 0.649707 0
-0.589947 0.620624 0
-0.646982 0.753643 0
-0.684323 0.719907 0
-0.646982 0.753643 0
-0.684323 0.719907 0
-0.751822 0.875768 0
-0.795214 0.836565 0
-0.751822 0.875768 0
-0.795214 0.836565 0
-0.87501 1.01926 0
-0.925512 0.973638 0
-0.87501 1.01926 0
-0.925512 0.973638 0
-1.01976 1.18787 0
-1.07861 1.1347 0
-1.01976 1.18787 0
-1.07861 1.1347 0
-1.18983 1.38599 0
-1.2585 1.32394 0
-1.18983 1.38599 0
-1.2585 1.32394 0
-1.38967 1.61877 0
-1.46988 1.54631 0
-1.38967 1.61877 0
-1.46988 1.54631 0
-1.62448 1.89229 0
-1.71824 1.80759 0
-1.62448 1.89229 0
-1.71824 1.80759 0
-1.90038 2.21368 0
-2.01007 2.11459 0
-1.90038 2.21368 0
-2.01007 2.11459 0
-2.22457 2.59132 0
-2.35296 2.47532 0
-2.22457 2.59132 0
-2.35296 2.47532 0
-2.60549 3.03503 0
-2.75587 2.89917 0
-0.0688967 0.0724793 0
-0.0724793 0.0688967 0
-0.0720887 0.0758373 0
-0.0758373 0.0720887 0
-0.0720887 0.0758373 0
-0.0758373 0.0720887 0
-0.0758393 0.0797829 0
-0.0797829 0.0758393 0
-0.0758393 0.0797829 0
-0.0797829 0.0758393 0
-0.0802463 0.0844191 0
-0.0844191 0.0802463 0
-0.0802463 0.0844191 0
-0.0844191 0.0802463 0
-0.0854245 0.0898665 0
-0.0898665 0.0854245 0
-0.0854245 0.0898665 0
-0.0898665 0.0854245 0
-0.0915089 0.0962673 0
-0.0962673 0.0915089 0
-0.0915089 0.0962673 0
-0.0962673 0.0915089 0
-0.0986581 0.103788 0
-0.103788 0.0986581 0
-0.0986581 0.103788 0
-0.103788 0.0986581 0
-0.107058 0.112625 0
-0.112625 0.107058 0
-0.107058 0.112625 0
-0.112625 0.107058 0
-0.116929 0.123009 0
-0.123009 0.116929 0
-0.116929 0.123009 0
-0.123009 0.116929 0
-0.128526 0.13521 0
-0.13521 0.128526 0
-0.128526 0.13521 0
-0.13521 0.128526 0
-0.142153 0.149545 0
-0.149545 0.142153 0
-0.142153 0.149545 0
-0.149545 0.142153 0
-0.158165 0.16639 0
-0.16639 0.158165 0
-0.158165 0.16639 0
-0.16639 0.158165 0
-0.176979 0.186182 0
-0.186182 0.176979 0
-0.176979 0.186182 0
-0.186182 0.176979 0
-0.199086 0.209438 0
-0.209438 0.199086 0
-0.199086 0.209438 0
-0.209438 0.199086 0
-0.225061 0.236764 0
-0.236764 0.225061 0
-0.225061 0.236764 0
-0.236764 0.225061 0
-0.255582 0.268872 0
-0.268872 0.255582 0
-0.255582 0.268872 0
-0.268872 0.255582 0
-0.291444 0.306599 0
-0.306599 0.291444 0
-0.291444 0.306599 0
-0.306599 0.291444 0
-0.333581 0.350927 0
-0.350927 0.333581 0
-0.333581 0.350927 0
-0.350927 0.333581 0
-0.383093 0.403014 0
-0.403014 0.383093 0
-0.383093 0.403014 0
-0.403014 0.383093 0
-0.44127 0.464215 0
-0.464215 0.44127 0
-0.44127 0.464215 0
-0.464215 0.44127 0
-0.509627 0.536127 0
-0.536127 0.509627 0
-0.509627 0.536127 0
-0.536127 0.509627 0
-0.589947 0.620624 0
-0.620624 0.589947 0
-0.589947 0.620624 0
-0.620624 0.589947 0
-0.684323 0.719907 0
-0.719907 0.684323 0
-0.684323 0.719907 0
-0.719907 0.684323 0
-0.795214 0.836565 0
-0.836565 0.795214 0
-0.795214 0.836565 0
-0.836565 0.795214 0
-0.925512 0.973638 0
-0.973638 0.925512 0
-0.925512 0.973638 0
-0.973638 0.925512 0
-1.07861 1.1347 0
-1.1347 1.07861 0
-1.07861 1.1347 0
-1.1347 1.07861 0
-1.2585 1.32394 0
-1.32394 1.2585 0
-1.2585 1.32394 0
-1.32394 1.2585 0
-1.46988 1.54631 0
-1.54631 1.46988 0
-1.46988 1.54631 0
-1.54631 1.46988 0
-1.71824 1.80759 0
-1.80759 1.71824 0
-1.71824 1.80759 0
-1.80759 1.71824 0
-2.01007 2.11459 0
-2.11459 2.01007 0
-2.01007 2.11459 0
-2.11459 2.01007 0
-2.35296 2.47532 0
-2.47532 2.35296 0
-2.35296 2.47532 0
-2.47532 2.35296 0
-2.75587 2.89917 0
-2.89917 2.75587 0
-0.0724793 0.0688967 0
-0.0758758 0.0651372 0
-0.0758373 0.0720887 0
-0.0793912 0.0681551 0
-0.0758373 0.0720887 0
-0.0793912 0.0681551 0
-0.0797829 0.0758393 0
-0.0835217 0.0717011 0
-0.0797829 0.0758393 0
-0.0835217 0.0717011 0
-0.0844191 0.0802463 0
-0.0883751 0.0758676 0
-0.0844191 0.0802463 0
-0.0883751 0.0758676 0
-0.0898665 0.0854245 0
-0.0940779 0.0807632 0
-0.0898665 0.0854245 0
-0.0940779 0.0807632 0
-0.0962673 0.0915089 0
-0.100779 0.0865156 0
-0.0962673 0.0915089 0
-0.100779 0.0865156 0
-0.103788 0.0986581 0
-0.108652 0.0932746 0
-0.103788 0.0986581 0
-0.108652 0.0932746 0
-0.112625 0.107058 0
-0.117903 0.101217 0
-0.112625 0.107058 0
-0.117903 0.101217 0
-0.123009 0.116929 0
-0.128773 0.110548 0
-0.123009 0.116929 0
-0.128773 0.110548 0
-0.13521 0.128526 0
-0.141546 0.121513 0
-0.13521 0.128526 0
-0.141546 0.121513 0
-0.149545 0.142153 0
-0.156553 0.134397 0
-0.149545 0.142153 0
-0.156553 0.134397 0
-0.16639 0.158165 0
-0.174187 0.149535 0
-0.16639 0.158165 0
-0.174187 0.149535 0
-0.186182 0.176979 0
-0.194907 0.167322 0
-0.186182 0.176979 0
-0.194907 0.167322 0
-0.209438 0.199086 0
-0.219253 0.188222 0
-0.209438 0.199086 0
-0.219253 0.188222 0
-0.236764 0.225061 0
-0.247859 0.21278 0
-0.236764 0.225061 0
-0.247859 0.21278 0
-0.268872 0.255582 0
-0.281472 0.241636 0
-0.268872 0.255582 0
-0.281472 0.241636 0
-0.306599 0.291444 0
-0.320966 0.275541 0
-0.306599 0.291444 0
-0.320966 0.275541 0
-0.350927 0.333581 0
-0.367373 0.315379 0
-0.350927 0.333581 0
-0.367373 0.315379 0
-0.403014 0.383093 0
-0.4219 0.362189 0
-0.403014 0.383093 0
-0.4219 0.362189 0
-0.464215 0.44127 0
-0.48597 0.417191 0
-0.464215 0.44127 0
-0.48597 0.417191 0
-0.536127 0.509627 0
-0.561251 0.481818 0
-0.536127 0.509627 0
-0.561251 0.481818 0
-0.620624 0.589947 0
-0.649707 0.557756 0
-0.620624 0.589947 0
-0.649707 0.557756 0
-0.719907 0.684323 0
-0.753643 0.646982 0
-0.719907 0.684323 0
-0.753643 0.646982 0
-0.836565 0.795214 0
-0.875768 0.751822 0
-0.836565 0.795214 0
-0.875768 0.751822 0
-0.973638 0.925512 0
-1.01926 0.87501 0
-0.973638 0.925512 0
-1.01926 0.87501 0
-1.1347 1.07861 0
-1.18787 1.01976 0
-1.1347 1.07861 0
-1.18787 1.01976 0
-1.32394 1.2585 0
-1.38599 1.18983 0
-1.32394 1.2585 0
-1.38599 1.18983 0
-1.54631 1.46988 0
-1.61877 1.38967 0
-1.54631 1.46988 0
-1.61877 1.38967 0
-1.80759 1.71824 0
-1.89229 1.62448 0
-1.80759 1.71824 0
-1.89229 1.62448 0
-2.11459 2.01007 0
-2.21368 1.90038 0
-2.11459 2.01007 0
-2.21368 1.90038 0
-2.47532 2.35296 0
-2.59132 2.22457 0
-2.47532 2.35296 0
-2.59132 2.22457 0
-2.89917 2.75587 0
-3.03503 2.60549 0
-0.0758758 0.0651372 0
-0.0790776 0.0612106 0
-0.0793912 0.0681551 0
-0.0827413 0.0640465 0
-0.0793912 0.0681551 0
-0.0827413 0.0640465 0
-0.0835217 0.0717011 0
-0.0870461 0.0673787 0
-0.0835217 0.0717011 0
-0.0870461 0.0673787 0
-0.0883751 0.0758676 0
-0.0921043 0.0712941 0
-0.0883751 0.0758676 0
-0.0921043 0.0712941 0
-0.0940779 0.0807632 0
-0.0980477 0.0758946 0
-0.0940779 0.0807632 0
-0.0980477 0.0758946 0
-0.100779 0.0865156 0
-0.105031 0.0813002 0
-0.100779 0.0865156 0
-0.105031 0.0813002 0
-0.108652 0.0932746 0
-0.113237 0.0876518 0
-0.108652 0.0932746 0
-0.113237 0.0876518 0
-0.117903 0.101217 0
-0.122878 0.0951149 0
-0.117903 0.101217 0
-0.122878 0.0951149 0
-0.128773 0.110548 0
-0.134207 0.103884 0
-0.128773 0.110548 0
-0.134207 0.103884 0
-0.141546 0.121513 0
-0.147519 0.114188 0
-0.141546 0.121513 0
-0.147519 0.114188 0
-0.156553 0.134397 0
-0.163159 0.126295 0
-0.156553 0.134397 0
-0.163159 0.126295 0
-0.174187 0.149535 0
-0.181537 0.14052 0
-0.174187 0.149535 0
-0.181537 0.14052 0
-0.194907 0.167322 0
-0.203132 0.157236 0
-0.194907 0.167322 0
-0.203132 0.157236 0
-0.219253 0.188222 0
-0.228505 0.176876 0
-0.219253 0.188222 0
-0.228505 0.176876 0
-0.247859 0.21278 0
-0.258318 0.199953 0
-0.247859 0.21278 0
-0.258318 0.199953 0
-0.281472 0.241636 0
-0.293349 0.227069 0
-0.281472 0.241636 0
-0.293349 0.227069 0
-0.320966 0.275541 0
-0.33451 0.25893 0
-0.320966 0.275541 0
-0.33451 0.25893 0
-0.367373 0.315379 0
-0.382875 0.296367 0
-0.367373 0.315379 0
-0.382875 0.296367 0
-0.4219 0.362189 0
-0.439703 0.340355 0
-0.4219 0.362189 0
-0.439703 0.340355 0
-0.48597 0.417191 0
-0.506476 0.392042 0
-0.48597 0.417191 0
-0.506476 0.392042 0
-0.561251 0.481818 0
-0.584935 0.452773 0
-0.561251 0.481818 0
-0.584935 0.452773 0
-0.649707 0.557756 0
-0.677123 0.524132 0
-0.649707 0.557756 0
-0.677123 0.524132 0
-0.753643 0.646982 0
-0.785445 0.60798 0
-0.753643 0.646982 0
-0.785445 0.60798 0
-0.875768 0.751822 0
-0.912723 0.7065 0
-0.875768 0.751822 0
-0.912723 0.7065 0
-1.01926 0.87501 0
-1.06227 0.822262 0
-1.01926 0.87501 0
-1.06227 0.822262 0
-1.18787 1.01976 0
-1.238 0.958282 0
-1.18787 1.01976 0
-1.238 0.958282 0
-1.38599 1.18983 0
-1.44447 1.11811 0
-1.38599 1.18983 0
-1.44447 1.11811 0
-1.61877 1.38967 0
-1.68708 1.3059 0
-1.61877 1.38967 0
-1.68708 1.3059 0
-1.89229 1.62448 0
-1.97214 1.52655 0
-1.89229 1.62448 0
-1.97214 1.52655 0
-2.21368 1.90038 0
-2.3071 1.78582 0
-2.21368 1.90038 0
-2.3071 1.78582 0
-2.59132 2.22457 0
-2.70066 2.09047 0
-2.59132 2.22457 0
-2.70066 2.09047 0
-3.03503 2.60549 0
-3.1631 2.44842 0
-0.0790776 0.0612106 0
-0.0820763 0.0571268 0
-0.0827413 0.0640465 0
-0.085879 0.0597735 0
-0.0827413 0.0640465 0
-0.085879 0.0597735 0
-0.0870461 0.0673787 0
-0.0903471 0.0628834 0
-0.0870461 0.0673787 0
-0.0903471 0.0628834 0
-0.0921043 0.0712941 0
-0.0955971 0.0665375 0
-0.0921043 0.0712941 0
-0.0955971 0.0665375 0
-0.0980477 0.0758946 0
-0.101766 0.0708311 0
-0.0980477 0.0758946 0
-0.101766 0.0708311 0
-0.105031 0.0813002 0
-0.109014 0.0758761 0
-0.105031 0.0813002 0
-0.109014 0.0758761 0
-0.113237 0.0876518 0
-0.117531 0.0818039 0
-0.113237 0.0876518 0
-0.117531 0.0818039 0
-0.122878 0.0951149 0
-0.127538 0.0887692 0
-0.122878 0.0951149 0
-0.127538 0.0887692 0
-0.134207 0.103884 0
-0.139297 0.0969533 0
-0.134207 0.103884 0
-0.139297 0.0969533 0
-0.147519 0.114188 0
-0.153113 0.10657 0
-0.147519 0.114188 0
-0.153113 0.10657 0
-0.163159 0.126295 0
-0.169347 0.117869 0
-0.163159 0.126295 0
-0.169347 0.117869 0
-0.181537 0.14052 0
-0.188422 0.131145 0
-0.181537 0.14052 0
-0.188422 0.131145 0
-0.203132 0.157236 0
-0.210835 0.146745 0
-0.203132 0.157236 0
-0.210835 0.146745 0
-0.228505 0.176876 0
-0.23717 0.165075 0
-0.228505 0.176876 0
-0.23717 0.165075 0
-0.258318 0.199953 0
-0.268114 0.186613 0
-0.258318 0.199953 0
-0.268114 0.186613 0
-0.293349 0.227069 0
-0.304474 0.21192 0
-0.293349 0.227069 0
-0.304474 0.21192 0
-0.33451 0.25893 0
-0.347196 0.241655 0
-0.33451 0.25893 0
-0.347196 0.241655 0
-0.382875 0.296367 0
-0.397394 0.276595 0
-0.382875 0.296367 0
-0.397394 0.276595 0
-0.439703 0.340355 0
-0.456377 0.317648 0
-0.439703 0.340355 0
-0.456377 0.317648 0
-0.506476 0.392042 0
-0.525683 0.365886 0
-0.506476 0.392042 0
-0.525683 0.365886 0
-0.584935 0.452773 0
-0.607116 0.422566 0
-0.584935 0.452773 0
-0.607116 0.422566 0
-0.677123 0.524132 0
-0.702801 0.489164 0
-0.677123 0.524132 0
-0.702801 0.489164 0
-0.785445 0.60798 0
-0.815231 0.567417 0
-0.785445 0.60798 0
-0.815231 0.567417 0
-0.912723 0.7065 0
-0.947335 0.659365 0
-0.912723 0.7065 0
-0.947335 0.659365 0
-1.06227 0.822262 0
-1.10256 0.767403 0
-1.06227 0.822262 0
-1.10256 0.767403 0
-1.238 0.958282 0
-1.28495 0.894348 0
-1.238 0.958282 0
-1.28495 0.894348 0
-1.44447 1.11811 0
-1.49925 1.04351 0
-1.44447 1.11811 0
-1.49925 1.04351 0
-1.68708 1.3059 0
-1.75106 1.21877 0
-1.68708 1.3059 0
-1.75106 1.21877 0
-1.97214 1.52655 0
-2.04693 1.42471 0
-1.97214 1.52655 0
-2.04693 1.42471 0
-2.3071 1.78582 0
-2.39458 1.66668 0
-2.3071 1.78582 0
-2.39458 1.66668 0
-2.70066 2.09047 0
-2.80308 1.951 0
-2.70066 2.09047 0
-2.80308 1.951 0
-3.1631 2.44842 0
-3.28305 2.28507 0
-0.0820763 0.0571268 0
-0.0848644 0.0528964 0
-0.085879 0.0597735 0
-0.0887962 0.0553471 0
-0.085879 0.0597735 0
-0.0887962 0.0553471 0
-0.0903471 0.0628834 0
-0.0934161 0.0582267 0
-0.0903471 0.0628834 0
-0.0934161 0.0582267 0
-0.0955971 0.0665375 0
-0.0988445 0.0616102 0
-0.0955971 0.0665375 0
-0.0988445 0.0616102 0
-0.101766 0.0708311 0
-0.105223 0.0655859 0
-0.101766 0.0708311 0
-0.105223 0.0655859 0
-0.109014 0.0758761 0
-0.112717 0.0702572 0
-0.109014 0.0758761 0
-0.112717 0.0702572 0
-0.117531 0.0818039 0
-0.121523 0.0757461 0
-0.117531 0.0818039 0
-0.121523 0.0757461 0
-0.127538 0.0887692 0
-0.131871 0.0821955 0
-0.127538 0.0887692 0
-0.131871 0.0821955 0
-0.139297 0.0969533 0
-0.144028 0.0897736 0
-0.139297 0.0969533 0
-0.144028 0.0897736 0
-0.153113 0.10657 0
-0.158314 0.0986778 0
-0.153113 0.10657 0
-0.158314 0.0986778 0
-0.169347 0.117869 0
-0.175099 0.10914 0
-0.169347 0.117869 0
-0.175099 0.10914 0
-0.188422 0.131145 0
-0.194822 0.121434 0
-0.188422 0.131145 0
-0.194822 0.121434 0
-0.210835 0.146745 0
-0.217997 0.135878 0
-0.210835 0.146745 0
-0.217997 0.135878 0
-0.23717 0.165075 0
-0.245227 0.152851 0
-0.23717 0.165075 0
-0.245227 0.152851 0
-0.268114 0.186613 0
-0.277222 0.172794 0
-0.268114 0.186613 0
-0.277222 0.172794 0
-0.304474 0.21192 0
-0.314816 0.196226 0
-0.304474 0.21192 0
-0.314816 0.196226 0
-0.347196 0.241655 0
-0.35899 0.22376 0
-0.347196 0.241655 0
-0.35899 0.22376 0
-0.397394 0.276595 0
-0.410893 0.256112 0
-0.397394 0.276595 0
-0.410893 0.256112 0
-0.456377 0.317648 0
-0.47188 0.294125 0
-0.456377 0.317648 0
-0.47188 0.294125 0
-0.525683 0.365886 0
-0.54354 0.338791 0
-0.525683 0.365886 0
-0.54354 0.338791 0
-0.607116 0.422566 0
-0.62774 0.391273 0
-0.607116 0.422566 0
-0.62774 0.391273 0
-0.702801 0.489164 0
-0.726675 0.45294 0
-0.702801 0.489164 0
-0.726675 0.45294 0
-0.815231 0.567417 0
-0.842924 0.525398 0
-0.815231 0.567417 0
-0.842924 0.525398 0
-0.947335 0.659365 0
-0.979516 0.610537 0
-0.947335 0.659365 0
-0.979516 0.610537 0
-1.10256 0.767403 0
-1.14001 0.710575 0
-1.10256 0.767403 0
-1.14001 0.710575 0
-1.28495 0.894348 0
-1.32859 0.828119 0
-1.28495 0.894348 0
-1.32859 0.828119 0
-1.49925 1.04351 0
-1.55018 0.966234 0
-1.49925 1.04351 0
-1.55018 0.966234 0
-1.75106 1.21877 0
-1.81054 1.12852 0
-1.75106 1.21877 0
-1.81054 1.12852 0
-2.04693 1.42471 0
-2.11647 1.3192 0
-2.04693 1.42471 0
-2.11647 1.3192 0
-2.39458 1.66668 0
-2.47593 1.54326 0
-2.39458 1.66668 0
-2.47593 1.54326 0
-2.80308 1.951 0
-2.89829 1.80652 0
-2.80308 1.951 0
-2.89829 1.80652 0
-3.28305 2.28507 0
-3.39458 2.11586 0
-0.0848644 0.0528964 0
-0.0874347 0.0485302 0
-0.0887962 0.0553471 0
-0.0914856 0.0507786 0
-0.0887962 0.0553471 0
-0.0914856 0.0507786 0
-0.0934161 0.0582267 0
-0.0962454 0.0534205 0
-0.0934161 0.0582267 0
-0.0962454 0.0534205 0
-0.0988445 0.0616102 0
-0.101838 0.0565248 0
-0.0988445 0.0616102 0
-0.101838 0.0565248 0
-0.105223 0.0655859 0
-0.10841 0.0601722 0
-0.105223 0.0655859 0
-0.10841 0.0601722 0
-0.112717 0.0702572 0
-0.116131 0.064458 0
-0.112717 0.0702572 0
-0.116131 0.064458 0
-0.121523 0.0757461 0
-0.125204 0.0694938 0
-0.121523 0.0757461 0
-0.125204 0.0694938 0
-0.131871 0.0821955 0
-0.135864 0.0754109 0
-0.131871 0.0821955 0
-0.135864 0.0754109 0
-0.144028 0.0897736 0
-0.14839 0.0823634 0
-0.144028 0.0897736 0
-0.14839 0.0823634 0
-0.158314 0.0986778 0
-0.163109 0.0905327 0
-0.158314 0.0986778 0
-0.163109 0.0905327 0
-0.175099 0.10914 0
-0.180402 0.100132 0
-0.175099 0.10914 0
-0.180402 0.100132 0
-0.194822 0.121434 0
-0.200723 0.11141 0
-0.194822 0.121434 0
-0.200723 0.11141 0
-0.217997 0.135878 0
-0.224599 0.124663 0
-0.217997 0.135878 0
-0.224599 0.124663 0
-0.245227 0.152851 0
-0.252654 0.140234 0
-0.245227 0.152851 0
-0.252654 0.140234 0
-0.277222 0.172794 0
-0.285618 0.158531 0
-0.277222 0.172794 0
-0.285618 0.158531 0
-0.314816 0.196226 0
-0.324351 0.180029 0
-0.314816 0.196226 0
-0.324351 0.180029 0
-0.35899 0.22376 0
-0.369862 0.20529 0
-0.35899 0.22376 0
-0.369862 0.20529 0
-0.410893 0.256112 0
-0.423338 0.234972 0
-0.410893 0.256112 0
-0.423338 0.234972 0
-0.47188 0.294125 0
-0.486172 0.269847 0
-0.47188 0.294125 0
-0.486172 0.269847 0
-0.54354 0.338791 0
-0.560002 0.310826 0
-0.54354 0.338791 0
-0.560002 0.310826 0
-0.62774 0.391273 0
-0.646752 0.358977 0
-0.62774 0.391273 0
-0.646752 0.358977 0
-0.726675 0.45294 0
-0.748683 0.415553 0
-0.726675 0.45294 0
-0.748683 0.415553 0
-0.842924 0.525398 0
-0.868453 0.482031 0
-0.842924 0.525398 0
-0.868453 0.482031 0
-0.979516 0.610537 0
-1.00918 0.560141 0
-0.979516 0.610537 0
-1.00918 0.560141 0
-1.14001 0.710575 0
-1.17454 0.651922 0
-1.14001 0.710575 0
-1.17454 0.651922 0
-1.32859 0.828119 0
-1.36883 0.759764 0
-1.32859 0.828119 0
-1.36883 0.759764 0
-1.55018 0.966234 0
-1.59713 0.886478 0
-1.55018 0.966234 0
-1.59713 0.886478 0
-1.81054 1.12852 0
-1.86537 1.03537 0
-1.81054 1.12852 0
-1.86537 1.03537 0
-2.11647 1.3192 0
-2.18057 1.21031 0
-2.11647 1.3192 0
-2.18057 1.21031 0
-2.47593 1.54326 0
-2.55091 1.41587 0
-2.47593 1.54326 0
-2.55091 1.41587 0
-2.89829 1.80652 0
-2.98607 1.65741 0
-2.89829 1.80652 0
-2.98607 1.65741 0
-3.39458 2.11586 0
-3.49739 1.94121 0
-0.0874347 0.0485302 0
-0.0897805 0.0440394 0
-0.0914856 0.0507786 0
-0.09394 0.0460798 0
-0.0914856 0.0507786 0
-0.09394 0.0460798 0
-0.0962454 0.0534205 0
-0.0988275 0.0484772 0
-0.0962454 0.0534205 0
-0.0988275 0.0484772 0
-0.101838 0.0565248 0
-0.10457 0.0512942 0
-0.101838 0.0565248 0
-0.10457 0.0512942 0
-0.10841 0.0601722 0
-0.111318 0.0546042 0
-0.10841 0.0601722 0
-0.111318 0.0546042 0
-0.116131 0.064458 0
-0.119247 0.0584934 0
-0.116131 0.064458 0
-0.119247 0.0584934 0
-0.125204 0.0694938 0
-0.128563 0.0630632 0
-0.125204 0.0694938 0
-0.128563 0.0630632 0
-0.135864 0.0754109 0
-0.13951 0.0684327 0
-0.135864 0.0754109 0
-0.13951 0.0684327 0
-0.14839 0.0823634 0
-0.152372 0.0747419 0
-0.14839 0.0823634 0
-0.152372 0.0747419 0
-0.163109 0.0905327 0
-0.167485 0.0821552 0
-0.163109 0.0905327 0
-0.167485 0.0821552 0
-0.180402 0.100132 0
-0.185243 0.0908658 0
-0.180402 0.100132 0
-0.185243 0.0908658 0
-0.200723 0.11141 0
-0.206108 0.101101 0
-0.200723 0.11141 0
-0.206108 0.101101 0
-0.224599 0.124663 0
-0.230625 0.113127 0
-0.224599 0.124663 0
-0.230625 0.113127 0
-0.252654 0.140234 0
-0.259432 0.127258 0
-0.252654 0.140234 0
-0.259432 0.127258 0
-0.285618 0.158531 0
-0.293281 0.143861 0
-0.285618 0.158531 0
-0.293281 0.143861 0
-0.324351 0.180029 0
-0.333053 0.16337 0
-0.324351 0.180029 0
-0.333053 0.16337 0
-0.369862 0.20529 0
-0.379785 0.186294 0
-0.369862 0.20529 0
-0.379785 0.186294 0
-0.423338 0.234972 0
-0.434696 0.213228 0
-0.423338 0.234972 0
-0.434696 0.213228 0
-0.486172 0.269847 0
-0.499215 0.244877 0
-0.486172 0.269847 0
-0.499215 0.244877 0
-0.560002 0.310826 0
-0.575026 0.282064 0
-0.560002 0.310826 0
-0.575026 0.282064 0
-0.646752 0.358977 0
-0.664104 0.325758 0
-0.646752 0.358977 0
-0.664104 0.325758 0
-0.748683 0.415553 0
-0.76877 0.3771 0
-0.748683 0.415553 0
-0.76877 0.3771 0
-0.868453 0.482031 0
-0.891752 0.437425 0
-0.868453 0.482031 0
-0.891752 0.437425 0
-1.00918 0.560141 0
-1.03626 0.508308 0
-1.00918 0.560141 0
-1.03626 0.508308 0
-1.17454 0.651922 0
-1.20605 0.591596 0
-1.17454 0.651922 0
-1.20605 0.591596 0
-1.36883 0.759764 0
-1.40556 0.689458 0
-1.36883 0.759764 0
-1.40556 0.689458 0
-1.59713 0.886478 0
-1.63998 0.804447 0
-1.59713 0.886478 0
-1.63998 0.804447 0
-1.86537 1.03537 0
-1.91542 0.939559 0
-1.86537 1.03537 0
-1.91542 0.939559 0
-2.18057 1.21031 0
-2.23907 1.09832 0
-2.18057 1.21031 0
-2.23907 1.09832 0
-2.55091 1.41587 0
-2.61935 1.28485 0
-2.55091 1.41587 0
-2.61935 1.28485 0
-2.98607 1.65741 0
-3.06619 1.50404 0
-2.98607 1.65741 0
-3.06619 1.50404 0
-3.49739 1.94121 0
-3.59122 1.76158 0
-0.0897805 0.0440394 0
-0.0918958 0.0394356 0
-0.09394 0.0460798 0
-0.0961534 0.0412627 0
-0.09394 0.0460798 0
-0.0961534 0.0412627 0
-0.0988275 0.0484772 0
-0.101156 0.0434095 0
-0.0988275 0.0484772 0
-0.101156 0.0434095 0
-0.10457 0.0512942 0
-0.107034 0.045932 0
-0.10457 0.0512942 0
-0.107034 0.045932 0
-0.111318 0.0546042 0
-0.113941 0.0488959 0
-0.111318 0.0546042 0
-0.113941 0.0488959 0
-0.119247 0.0584934 0
-0.122056 0.0523785 0
-0.119247 0.0584934 0
-0.122056 0.0523785 0
-0.128563 0.0630632 0
-0.131592 0.0564706 0
-0.128563 0.0630632 0
-0.131592 0.0564706 0
-0.13951 0.0684327 0
-0.142797 0.0612788 0
-0.13951 0.0684327 0
-0.142797 0.0612788 0
-0.152372 0.0747419 0
-0.155962 0.0669284 0
-0.152372 0.0747419 0
-0.155962 0.0669284 0
-0.167485 0.0821552 0
-0.171431 0.0735668 0
-0.167485 0.0821552 0
-0.171431 0.0735668 0
-0.185243 0.0908658 0
-0.189607 0.0813668 0
-0.185243 0.0908658 0
-0.189607 0.0813668 0
-0.206108 0.101101 0
-0.210964 0.0905318 0
-0.206108 0.101101 0
-0.210964 0.0905318 0
-0.230625 0.113127 0
-0.236059 0.101301 0
-0.230625 0.113127 0
-0.236059 0.101301 0
-0.259432 0.127258 0
-0.265545 0.113954 0
-0.259432 0.127258 0
-0.265545 0.113954 0
-0.293281 0.143861 0
-0.300191 0.128822 0
-0.293281 0.143861 0
-0.300191 0.128822 0
-0.333053 0.16337 0
-0.3409 0.146292 0
-0.333053 0.16337 0
-0.3409 0.146292 0
-0.379785 0.186294 0
-0.388733 0.166819 0
-0.379785 0.186294 0
-0.388733 0.166819 0
-0.434696 0.213228 0
-0.444938 0.190938 0
-0.434696 0.213228 0
-0.444938 0.190938 0
-0.499215 0.244877 0
-0.510977 0.219278 0
-0.499215 0.244877 0
-0.510977 0.219278 0
-0.575026 0.282064 0
-0.588574 0.252577 0
-0.575026 0.282064 0
-0.588574 0.252577 0
-0.664104 0.325758 0
-0.679751 0.291704 0
-0.664104 0.325758 0
-0.679751 0.291704 0
-0.76877 0.3771 0
-0.786883 0.337678 0
-0.76877 0.3771 0
-0.786883 0.337678 0
-0.891752 0.437425 0
-0.912763 0.391697 0
-0.891752 0.437425 0
-0.912763 0.391697 0
-1.03626 0.508308 0
-1.06067 0.45517 0
-1.03626 0.508308 0
-1.06067 0.45517 0
-1.20605 0.591596 0
-1.23447 0.529751 0
-1.20605 0.591596 0
-1.23447 0.529751 0
-1.40556 0.689458 0
-1.43867 0.617383 0
-1.40556 0.689458 0
-1.43867 0.617383 0
-1.63998 0.804447 0
-1.67862 0.720351 0
-1.63998 0.804447 0
-1.67862 0.720351 0
-1.91542 0.939559 0
-1.96055 0.841339 0
-1.91542 0.939559 0
-1.96055 0.841339 0
-2.23907 1.09832 0
-2.29182 0.983499 0
-2.23907 1.09832 0
-2.29182 0.983499 0
-2.61935 1.28485 0
-2.68107 1.15054 0
-2.61935 1.28485 0
-2.68107 1.15054 0
-3.06619 1.50404 0
-3.13843 1.34681 0
-3.06619 1.50404 0
-3.13843 1.34681 0
-3.59122 1.76158 0
-3.67583 1.57742 0
-0.0918958 0.0394356 0
-0.0937752 0.0347305 0
-0.0961534 0.0412627 0
-0.0981199 0.0363396 0
-0.0961534 0.0412627 0
-0.0981199 0.0363396 0
-0.101156 0.0434095 0
-0.103225 0.0382303 0
-0.101156 0.0434095 0
-0.103225 0.0382303 0
-0.107034 0.045932 0
-0.109223 0.0404518 0
-0.107034 0.045932 0
-0.109223 0.0404518 0
-0.113941 0.0488959 0
-0.116271 0.0430621 0
-0.113941 0.0488959 0
-0.116271 0.0430621 0
-0.122056 0.0523785 0
-0.124553 0.0461292 0
-0.122056 0.0523785 0
-0.124553 0.0461292 0
-0.131592 0.0564706 0
-0.134283 0.0497331 0
-0.131592 0.0564706 0
-0.134283 0.0497331 0
-0.142797 0.0612788 0
-0.145717 0.0539676 0
-0.142797 0.0612788 0
-0.145717 0.0539676 0
-0.155962 0.0669284 0
-0.159151 0.0589432 0
-0.155962 0.0669284 0
-0.159151 0.0589432 0
-0.171431 0.0735668 0
-0.174937 0.0647895 0
-0.171431 0.0735668 0
-0.174937 0.0647895 0
-0.189607 0.0813668 0
-0.193485 0.0716589 0
-0.189607 0.0813668 0
-0.193485 0.0716589 0
-0.210964 0.0905318 0
-0.215279 0.0797305 0
-0.210964 0.0905318 0
-0.215279 0.0797305 0
-0.236059 0.101301 0
-0.240886 0.0892145 0
-0.236059 0.101301 0
-0.240886 0.0892145 0
-0.265545 0.113954 0
-0.270976 0.100358 0
-0.265545 0.113954 0
-0.270976 0.100358 0
-0.300191 0.128822 0
-0.30633 0.113452 0
-0.300191 0.128822 0
-0.30633 0.113452 0
-0.3409 0.146292 0
-0.347872 0.128838 0
-0.3409 0.146292 0
-0.347872 0.128838 0
-0.388733 0.166819 0
-0.396684 0.146916 0
-0.388733 0.166819 0
-0.396684 0.146916 0
-0.444938 0.190938 0
-0.454037 0.168157 0
-0.444938 0.190938 0
-0.454037 0.168157 0
-0.510977 0.219278 0
-0.521428 0.193116 0
-0.510977 0.219278 0
-0.521428 0.193116 0
-0.588574 0.252577 0
-0.600612 0.222442 0
-0.588574 0.252577 0
-0.600612 0.222442 0
-0.679751 0.291704 0
-0.693653 0.256901 0
-0.679751 0.291704 0
-0.693653 0.256901 0
-0.786883 0.337678 0
-0.802976 0.29739 0
-0.786883 0.337678 0
-0.802976 0.29739 0
-0.912763 0.391697 0
-0.931431 0.344964 0
-0.912763 0.391697 0
-0.931431 0.344964 0
-1.06067 0.45517 0
-1.08237 0.400864 0
-1.06067 0.45517 0
-1.08237 0.400864 0
-1.23447 0.529751 0
-1.25971 0.466546 0
-1.23447 0.529751 0
-1.25971 0.466546 0
-1.43867 0.617383 0
-1.4681 0.543723 0
-1.43867 0.617383 0
-1.4681 0.543723 0
-1.67862 0.720351 0
-1.71295 0.634406 0
-1.67862 0.720351 0
-1.71295 0.634406 0
-1.96055 0.841339 0
-2.00065 0.740958 0
-1.96055 0.841339 0
-2.00065 0.740958 0
-2.29182 0.983499 0
-2.33869 0.866157 0
-2.29182 0.983499 0
-2.33869 0.866157 0
-2.68107 1.15054 0
-2.7359 1.01327 0
-2.68107 1.15054 0
-2.7359 1.01327 0
-3.13843 1.34681 0
-3.20262 1.18612 0
-3.13843 1.34681 0
-3.20262 1.18612 0
-3.67583 1.57742 0
-3.75101 1.38922 0
-0.0937752 0.0347305 0
-0.0954139 0.0299363 0
-0.0981199 0.0363396 0
-0.0998345 0.0313233 0
-0.0981199 0.0363396 0
-0.0998345 0.0313233 0
-0.103225 0.0382303 0
-0.105029 0.032953 0
-0.103225 0.0382303 0
-0.105029 0.032953 0
-0.109223 0.0404518 0
-0.111132 0.0348678 0
-0.109223 0.0404518 0
-0.111132 0.0348678 0
-0.116271 0.0430621 0
-0.118303 0.0371178 0
-0.116271 0.0430621 0
-0.118303 0.0371178 0
-0.124553 0.0461292 0
-0.126729 0.0397615 0
-0.124553 0.0461292 0
-0.126729 0.0397615 0
-0.134283 0.0497331 0
-0.13663 0.0428679 0
-0.134283 0.0497331 0
-0.13663 0.0428679 0
-0.145717 0.0539676 0
-0.148263 0.0465179 0
-0.145717 0.0539676 0
-0.148263 0.0465179 0
-0.159151 0.0589432 0
-0.161933 0.0508067 0
-0.159151 0.0589432 0
-0.161933 0.0508067 0
-0.174937 0.0647895 0
-0.177994 0.0558459 0
-0.174937 0.0647895 0
-0.177994 0.0558459 0
-0.193485 0.0716589 0
-0.196866 0.0617671 0
-0.193485 0.0716589 0
-0.196866 0.0617671 0
-0.215279 0.0797305 0
-0.219041 0.0687245 0
-0.215279 0.0797305 0
-0.219041 0.0687245 0
-0.240886 0.0892145 0
-0.245096 0.0768993 0
-0.240886 0.0892145 0
-0.245096 0.0768993 0
-0.270976 0.100358 0
-0.275711 0.0865048 0
-0.270976 0.100358 0
-0.275711 0.0865048 0
-0.30633 0.113452 0
-0.311683 0.0977913 0
-0.30633 0.113452 0
-0.311683 0.0977913 0
-0.347872 0.128838 0
-0.353951 0.111053 0
-0.347872 0.128838 0
-0.353951 0.111053 0
-0.396684 0.146916 0
-0.403616 0.126635 0
-0.396684 0.146916 0
-0.403616 0.126635 0
-0.454037 0.168157 0
-0.461972 0.144945 0
-0.454037 0.168157 0
-0.461972 0.144945 0
-0.521428 0.193116 0
-0.53054 0.166458 0
-0.521428 0.193116 0
-0.53054 0.166458 0
-0.600612 0.222442 0
-0.611107 0.191736 0
-0.600612 0.222442 0
-0.611107 0.191736 0
-0.693653 0.256901 0
-0.705774 0.221438 0
-0.693653 0.256901 0
-0.705774 0.221438 0
-0.802976 0.29739 0
-0.817008 0.256338 0
-0.802976 0.29739 0
-0.817008 0.256338 0
-0.931431 0.344964 0
-0.947707 0.297345 0
-0.931431 0.344964 0
-0.947707 0.297345 0
-1.08237 0.400864 0
-1.10128 0.345529 0
-1.08237 0.400864 0
-1.10128 0.345529 0
-1.25971 0.466546 0
-1.28173 0.402144 0
-1.25971 0.466546 0
-1.28173 0.402144 0
-1.4681 0.543723 0
-1.49375 0.468668 0
-1.4681 0.543723 0
-1.49375 0.468668 0
-1.71295 0.634406 0
-1.74288 0.546832 0
-1.71295 0.634406 0
-1.74288 0.546832 0
-2.00065 0.740958 0
-2.03561 0.638676 0
-2.00065 0.740958 0
-2.03561 0.638676 0
-2.33869 0.866157 0
-2.37956 0.746593 0
-2.33869 0.866157 0
-2.37956 0.746593 0
-2.7359 1.01327 0
-2.78371 0.873395 0
-2.7359 1.01327 0
-2.78371 0.873395 0
-3.20262 1.18612 0
-3.25858 1.02239 0
-3.20262 1.18612 0
-3.25858 1.02239 0
-3.75101 1.38922 0
-3.81656 1.19745 0
-0.0954139 0.0299363 0
-0.0968077 0.0250653 0
-0.0998345 0.0313233 0
-0.101293 0.0262265 0
-0.0998345 0.0313233 0
-0.101293 0.0262265 0
-0.105029 0.032953 0
-0.106563 0.0275911 0
-0.105029 0.032953 0
-0.106563 0.0275911 0
-0.111132 0.0348678 0
-0.112755 0.0291944 0
-0.111132 0.0348678 0
-0.112755 0.0291944 0
-0.118303 0.0371178 0
-0.120031 0.0310782 0
-0.118303 0.0371178 0
-0.120031 0.0310782 0
-0.126729 0.0397615 0
-0.12858 0.0332918 0
-0.126729 0.0397615 0
-0.12858 0.0332918 0
-0.13663 0.0428679 0
-0.138626 0.0358927 0
-0.13663 0.0428679 0
-0.138626 0.0358927 0
-0.148263 0.0465179 0
-0.150429 0.0389488 0
-0.148263 0.0465179 0
-0.150429 0.0389488 0
-0.161933 0.0508067 0
-0.164298 0.0425397 0
-0.161933 0.0508067 0
-0.164298 0.0425397 0
-0.177994 0.0558459 0
-0.180594 0.046759 0
-0.177994 0.0558459 0
-0.180594 0.046759 0
-0.196866 0.0617671 0
-0.199742 0.0517167 0
-0.196866 0.0617671 0
-0.199742 0.0517167 0
-0.219041 0.0687245 0
-0.22224 0.057542 0
-0.219041 0.0687245 0
-0.22224 0.057542 0
-0.245096 0.0768993 0
-0.248676 0.0643867 0
-0.245096 0.0768993 0
-0.248676 0.0643867 0
-0.275711 0.0865048 0
-0.279738 0.0724293 0
-0.275711 0.0865048 0
-0.279738 0.0724293 0
-0.311683 0.0977913 0
-0.316236 0.0818793 0
-0.311683 0.0977913 0
-0.316236 0.0818793 0
-0.353951 0.111053 0
-0.359122 0.092983 0
-0.353951 0.111053 0
-0.359122 0.092983 0
-0.403616 0.126635 0
-0.409512 0.10603 0
-0.403616 0.126635 0
-0.409512 0.10603 0
-0.461972 0.144945 0
-0.46872 0.12136 0
-0.461972 0.144945 0
-0.46872 0.12136 0
-0.53054 0.166458 0
-0.53829 0.139373 0
-0.53054 0.166458 0
-0.53829 0.139373 0
-0.611107 0.191736 0
-0.620034 0.160538 0
-0.611107 0.191736 0
-0.620034 0.160538 0
-0.705774 0.221438 0
-0.716084 0.185407 0
-0.705774 0.221438 0
-0.716084 0.185407 0
-0.817008 0.256338 0
-0.828943 0.214628 0
-0.817008 0.256338 0
-0.828943 0.214628 0
-0.947707 0.297345 0
-0.961551 0.248963 0
-0.947707 0.297345 0
-0.961551 0.248963 0
-1.10128 0.345529 0
-1.11737 0.289306 0
-1.10128 0.345529 0
-1.11737 0.289306 0
-1.28173 0.402144 0
-1.30045 0.33671 0
-1.28173 0.402144 0
-1.30045 0.33671 0
-1.49375 0.468668 0
-1.51557 0.392409 0
-1.49375 0.468668 0
-1.51557 0.392409 0
-1.74288 0.546832 0
-1.76834 0.457855 0
-1.74288 0.546832 0
-1.76834 0.457855 0
-2.03561 0.638676 0
-2.06534 0.534755 0
-2.03561 0.638676 0
-2.06534 0.534755 0
-2.37956 0.746593 0
-2.41432 0.625112 0
-2.37956 0.746593 0
-2.41432 0.625112 0
-2.78371 0.873395 0
-2.82437 0.731281 0
-2.78371 0.873395 0
-2.82437 0.731281 0
-3.25858 1.02239 0
-3.30618 0.85603 0
-3.25858 1.02239 0
-3.30618 0.85603 0
-3.81656 1.19745 0
-3.87231 1.00261 0
-0.0968077 0.0250653 0
-0.097953 0.0201299 0
-0.101293 0.0262265 0
-0.102491 0.0210625 0
-0.101293 0.0262265 0
-0.102491 0.0210625 0
-0.106563 0.0275911 0
-0.107824 0.0221583 0
-0.106563 0.0275911 0
-0.107824 0.0221583 0
-0.112755 0.0291944 0
-0.114089 0.0234459 0
-0.112755 0.0291944 0
-0.114089 0.0234459 0
-0.120031 0.0310782 0
-0.121451 0.0249589 0
-0.120031 0.0310782 0
-0.121451 0.0249589 0
-0.12858 0.0332918 0
-0.130102 0.0267366 0
-0.12858 0.0332918 0
-0.130102 0.0267366 0
-0.138626 0.0358927 0
-0.140266 0.0288254 0
-0.138626 0.0358927 0
-0.140266 0.0288254 0
-0.150429 0.0389488 0
-0.152209 0.0312797 0
-0.150429 0.0389488 0
-0.152209 0.0312797 0
-0.164298 0.0425397 0
-0.166242 0.0341636 0
-0.164298 0.0425397 0
-0.166242 0.0341636 0
-0.180594 0.046759 0
-0.182731 0.0375521 0
-0.180594 0.046759 0
-0.182731 0.0375521 0
-0.199742 0.0517167 0
-0.202105 0.0415336 0
-0.199742 0.0517167 0
-0.202105 0.0415336 0
-0.22224 0.057542 0
-0.22487 0.0462119 0
-0.22224 0.057542 0
-0.22487 0.0462119 0
-0.248676 0.0643867 0
-0.251618 0.0517089 0
-0.248676 0.0643867 0
-0.251618 0.0517089 0
-0.279738 0.0724293 0
-0.283048 0.0581678 0
-0.279738 0.0724293 0
-0.283048 0.0581678 0
-0.316236 0.0818793 0
-0.319978 0.0657571 0
-0.316236 0.0818793 0
-0.319978 0.0657571 0
-0.359122 0.092983 0
-0.36337 0.0746745 0
-0.359122 0.092983 0
-0.36337 0.0746745 0
-0.409512 0.10603 0
-0.414356 0.0851524 0
-0.409512 0.10603 0
-0.414356 0.0851524 0
-0.46872 0.12136 0
-0.474265 0.097464 0
-0.46872 0.12136 0
-0.474265 0.097464 0
-0.53829 0.139373 0
-0.544658 0.11193 0
-0.53829 0.139373 0
-0.544658 0.11193 0
-0.620034 0.160538 0
-0.62737 0.128928 0
-0.620034 0.160538 0
-0.62737 0.128928 0
-0.716084 0.185407 0
-0.724556 0.1489 0
-0.716084 0.185407 0
-0.724556 0.1489 0
-0.828943 0.214628 0
-0.838749 0.172367 0
-0.828943 0.214628 0
-0.838749 0.172367 0
-0.961551 0.248963 0
-0.972927 0.199942 0
-0.961551 0.248963 0
-0.972927 0.199942 0
-1.11737 0.289306 0
-1.13059 0.232341 0
-1.11737 0.289306 0
-1.13059 0.232341 0
-1.30045 0.33671 0
-1.31583 0.270411 0
-1.30045 0.33671 0
-1.31583 0.270411 0
-1.51557 0.392409 0
-1.5335 0.315143 0
-1.51557 0.392409 0
-1.5335 0.315143 0
-1.76834 0.457855 0
-1.78926 0.367703 0
-1.76834 0.457855 0
-1.78926 0.367703 0
-2.06534 0.534755 0
-2.08978 0.42946 0
-2.06534 0.534755 0
-2.08978 0.42946 0
-2.41432 0.625112 0
-2.44289 0.502026 0
-2.41432 0.625112 0
-2.44289 0.502026 0
-2.82437 0.731281 0
-2.85779 0.58729 0
-2.82437 0.731281 0
-2.85779 0.58729 0
-3.30618 0.85603 0
-3.3453 0.687476 0
-3.30618 0.85603 0
-3.3453 0.687476 0
-3.87231 1.00261 0
-3.91812 0.805194 0
-0.097953 0.0201299 0
-0.0988468 0.0151428 0
-0.102491 0.0210625 0
-0.103426 0.0158444 0
-0.102491 0.0210625 0
-0.103426 0.0158444 0
-0.107824 0.0221583 0
-0.108808 0.0166687 0
-0.107824 0.0221583 0
-0.108808 0.0166687 0
-0.114089 0.0234459 0
-0.11513 0.0176373 0
-0.114089 0.0234459 0
-0.11513 0.0176373 0
-0.121451 0.0249589 0
-0.122559 0.0187754 0
-0.121451 0.0249589 0
-0.122559 0.0187754 0
-0.130102 0.0267366 0
-0.131289 0.0201127 0
-0.130102 0.0267366 0
-0.131289 0.0201127 0
-0.140266 0.0288254 0
-0.141546 0.021684 0
-0.140266 0.0288254 0
-0.141546 0.021684 0
-0.152209 0.0312797 0
-0.153598 0.0235303 0
-0.152209 0.0312797 0
-0.153598 0.0235303 0
-0.166242 0.0341636 0
-0.167759 0.0256997 0
-0.166242 0.0341636 0
-0.167759 0.0256997 0
-0.182731 0.0375521 0
-0.184398 0.0282487 0
-0.182731 0.0375521 0
-0.184398 0.0282487 0
-0.202105 0.0415336 0
-0.203949 0.0312438 0
-0.202105 0.0415336 0
-0.203949 0.0312438 0
-0.22487 0.0462119 0
-0.226922 0.0347631 0
-0.22487 0.0462119 0
-0.226922 0.0347631 0
-0.251618 0.0517089 0
-0.253914 0.0388982 0
-0.251618 0.0517089 0
-0.253914 0.0388982 0
-0.283048 0.0581678 0
-0.285631 0.043757 0
-0.283048 0.0581678 0
-0.285631 0.043757 0
-0.319978 0.0657571 0
-0.322897 0.0494661 0
-0.319978 0.0657571 0
-0.322897 0.0494661 0
-0.36337 0.0746745 0
-0.366686 0.0561742 0
-0.36337 0.0746745 0
-0.366686 0.0561742 0
-0.414356 0.0851524 0
-0.418137 0.0640563 0
-0.414356 0.0851524 0
-0.418137 0.0640563 0
-0.474265 0.097464 0
-0.478593 0.0733177 0
-0.474265 0.097464 0
-0.478593 0.0733177 0
-0.544658 0.11193 0
-0.549628 0.0841999 0
-0.544658 0.11193 0
-0.549628 0.0841999 0
-0.62737 0.128928 0
-0.633094 0.0969865 0
-0.62737 0.128928 0
-0.633094 0.0969865 0
-0.724556 0.1489 0
-0.731167 0.112011 0
-0.724556 0.1489 0
-0.731167 0.112011 0
-0.838749 0.172367 0
-0.846403 0.129664 0
-0.838749 0.172367 0
-0.846403 0.129664 0
-0.972927 0.199942 0
-0.981805 0.150407 0
-0.972927 0.199942 0
-0.981805 0.150407 0
-1.13059 0.232341 0
-1.1409 0.17478 0
-1.13059 0.232341 0
-1.1409 0.17478 0
-1.31583 0.270411 0
-1.32784 0.203418 0
-1.31583 0.270411 0
-1.32784 0.203418 0
-1.5335 0.315143 0
-1.5475 0.237068 0
-1.5335 0.315143 0
-1.5475 0.237068 0
-1.78926 0.367703 0
-1.80559 0.276606 0
-1.78926 0.367703 0
-1.80559 0.276606 0
-2.08978 0.42946 0
-2.10885 0.323064 0
-2.08978 0.42946 0
-2.10885 0.323064 0
-2.44289 0.502026 0
-2.46518 0.377651 0
-2.44289 0.502026 0
-2.46518 0.377651 0
-2.85779 0.58729 0
-2.88387 0.441792 0
-2.85779 0.58729 0
-2.88387 0.441792 0
-3.3453 0.687476 0
-3.37582 0.517157 0
-3.3453 0.687476 0
-3.37582 0.517157 0
-3.91812 0.805194 0
-3.95387 0.605711 0
-0.0988468 0.0151428 0
-0.0994869 0.0101168 0
-0.103426 0.0158444 0
-0.104096 0.0105856 0
-0.103426 0.0158444 0
-0.104096 0.0105856 0
-0.108808 0.0166687 0
-0.109512 0.0111363 0
-0.108808 0.0166687 0
-0.109512 0.0111363 0
-0.11513 0.0176373 0
-0.115876 0.0117834 0
-0.11513 0.0176373 0
-0.115876 0.0117834 0
-0.122559 0.0187754 0
-0.123353 0.0125438 0
-0.122559 0.0187754 0
-0.123353 0.0125438 0
-0.131289 0.0201127 0
-0.132139 0.0134372 0
-0.131289 0.0201127 0
-0.132139 0.0134372 0
-0.141546 0.021684 0
-0.142462 0.014487 0
-0.141546 0.021684 0
-0.142462 0.014487 0
-0.153598 0.0235303 0
-0.154592 0.0157205 0
-0.153598 0.0235303 0
-0.154592 0.0157205 0
-0.167759 0.0256997 0
-0.168845 0.0171699 0
-0.167759 0.0256997 0
-0.168845 0.0171699 0
-0.184398 0.0282487 0
-0.185592 0.0188729 0
-0.184398 0.0282487 0
-0.185592 0.0188729 0
-0.203949 0.0312438 0
-0.20527 0.0208739 0
-0.203949 0.0312438 0
-0.20527 0.0208739 0
-0.226922 0.0347631 0
-0.228391 0.0232251 0
-0.226922 0.0347631 0
-0.228391 0.0232251 0
-0.253914 0.0388982 0
-0.255559 0.0259878 0
-0.253914 0.0388982 0
-0.255559 0.0259878 0
-0.285631 0.043757 0
-0.28748 0.0292339 0
-0.285631 0.043757 0
-0.28748 0.0292339 0
-0.322897 0.0494661 0
-0.324988 0.0330481 0
-0.322897 0.0494661 0
-0.324988 0.0330481 0
-0.366686 0.0561742 0
-0.36906 0.0375298 0
-0.366686 0.0561742 0
-0.36906 0.0375298 0
-0.418137 0.0640563 0
-0.420845 0.0427958 0
-0.418137 0.0640563 0
-0.420845 0.0427958 0
-0.478593 0.0733177 0
-0.481692 0.0489833 0
-0.478593 0.0733177 0
-0.481692 0.0489833 0
-0.549628 0.0841999 0
-0.553187 0.0562536 0
-0.549628 0.0841999 0
-0.553187 0.0562536 0
-0.633094 0.0969865 0
-0.637194 0.0647963 0
-0.633094 0.0969865 0
-0.637194 0.0647963 0
-0.731167 0.112011 0
-0.735902 0.0748339 0
-0.731167 0.112011 0
-0.735902 0.0748339 0
-0.846403 0.129664 0
-0.851884 0.0866281 0
-0.846403 0.129664 0
-0.851884 0.0866281 0
-0.981805 0.150407 0
-0.988163 0.100486 0
-0.981805 0.150407 0
-0.988163 0.100486 0
-1.1409 0.17478 0
-1.14829 0.11677 0
-1.1409 0.17478 0
-1.14829 0.11677 0
-1.32784 0.203418 0
-1.33644 0.135903 0
-1.32784 0.203418 0
-1.33644 0.135903 0
-1.5475 0.237068 0
-1.55752 0.158384 0
-1.5475 0.237068 0
-1.55752 0.158384 0
-1.80559 0.276606 0
-1.81728 0.184799 0
-1.80559 0.276606 0
-1.81728 0.184799 0
-2.10885 0.323064 0
-2.1225 0.215838 0
-2.10885 0.323064 0
-2.1225 0.215838 0
-2.46518 0.377651 0
-2.48114 0.252307 0
-2.46518 0.377651 0
-2.48114 0.252307 0
-2.88387 0.441792 0
-2.90254 0.295159 0
-2.88387 0.441792 0
-2.90254 0.295159 0
-3.37582 0.517157 0
-3.39768 0.345511 0
-3.37582 0.517157 0
-3.39768 0.345511 0
-3.95387 0.605711 0
-3.97948 0.404673 0
-0.0994869 0.0101168 0
-0.0998717 0.00506492 0
-0.104096 0.0105856 0
-0.104499 0.00529958 0
-0.104096 0.0105856 0
-0.104499 0.00529958 0
-0.109512 0.0111363 0
-0.109936 0.0055753 0
-0.109512 0.0111363 0
-0.109936 0.0055753 0
-0.115876 0.0117834 0
-0.116324 0.00589928 0
-0.115876 0.0117834 0
-0.116324 0.00589928 0
-0.123353 0.0125438 0
-0.12383 0.00627995 0
-0.123353 0.0125438 0
-0.12383 0.00627995 0
-0.132139 0.0134372 0
-0.13265 0.00672725 0
-0.132139 0.0134372 0
-0.13265 0.00672725 0
-0.142462 0.014487 0
-0.143013 0.00725281 0
-0.142462 0.014487 0
-0.143013 0.00725281 0
-0.154592 0.0157205 0
-0.15519 0.00787036 0
-0.154592 0.0157205 0
-0.15519 0.00787036 0
-0.168845 0.0171699 0
-0.169498 0.00859597 0
-0.168845 0.0171699 0
-0.169498 0.00859597 0
-0.185592 0.0188729 0
-0.18631 0.00944856 0
-0.185592 0.0188729 0
-0.18631 0.00944856 0
-0.20527 0.0208739 0
-0.206064 0.0104504 0
-0.20527 0.0208739 0
-0.206064 0.0104504 0
-0.228391 0.0232251 0
-0.229274 0.0116275 0
-0.228391 0.0232251 0
-0.229274 0.0116275 0
-0.255559 0.0259878 0
-0.256547 0.0130106 0
-0.255559 0.0259878 0
-0.256547 0.0130106 0
-0.28748 0.0292339 0
-0.288592 0.0146357 0
-0.28748 0.0292339 0
-0.288592 0.0146357 0
-0.324988 0.0330481 0
-0.326245 0.0165453 0
-0.324988 0.0330481 0
-0.326245 0.0165453 0
-0.36906 0.0375298 0
-0.370488 0.018789 0
-0.36906 0.0375298 0
-0.370488 0.018789 0
-0.420845 0.0427958 0
-0.422473 0.0214254 0
-0.420845 0.0427958 0
-0.422473 0.0214254 0
-0.481692 0.0489833 0
-0.483555 0.0245231 0
-0.481692 0.0489833 0
-0.483555 0.0245231 0
-0.553187 0.0562536 0
-0.555326 0.028163 0
-0.553187 0.0562536 0
-0.555326 0.028163 0
-0.637194 0.0647963 0
-0.639658 0.0324398 0
-0.637194 0.0647963 0
-0.639658 0.0324398 0
-0.735902 0.0748339 0
-0.738748 0.0374651 0
-0.735902 0.0748339 0
-0.738748 0.0374651 0
-0.851884 0.0866281 0
-0.855178 0.0433697 0
-0.851884 0.0866281 0
-0.855178 0.0433697 0
-0.988163 0.100486 0
-0.991984 0.0503077 0
-0.988163 0.100486 0
-0.991984 0.0503077 0
-1.14829 0.11677 0
-1.15273 0.0584599 0
-1.14829 0.11677 0
-1.15273 0.0584599 0
-1.33644 0.135903 0
-1.34161 0.0680387 0
-1.33644 0.135903 0
-1.34161 0.0680387 0
-1.55752 0.158384 0
-1.56354 0.0792937 0
-1.55752 0.158384 0
-1.56354 0.0792937 0
-1.81728 0.184799 0
-1.82431 0.0925184 0
-1.81728 0.184799 0
-1.82431 0.0925184 0
-2.1225 0.215838 0
-2.13071 0.108057 0
-2.1225 0.215838 0
-2.13071 0.108057 0
-2.48114 0.252307 0
-2.49074 0.126316 0
-2.48114 0.252307 0
-2.49074 0.126316 0
-2.90254 0.295159 0
-2.91376 0.147769 0
-2.90254 0.295159 0
-2.91376 0.147769 0
-3.39768 0.345511 0
-3.41082 0.172977 0
-3.39768 0.345511 0
-3.41082 0.172977 0
-3.97948 0.404673 0
-3.99487 0.202597 0
-0.0998717 0.00506492 0
-0.1 0 0
-0.104499 0.00529958 0
-0.104633 0 0
-0.104499 0.00529958 0
-0.104633 0 0
-0.109936 0.0055753 0
-0.110077 0 0
-0.109936 0.0055753 0
-0.110077 0 0
-0.116324 0.00589928 0
-0.116473 0 0
-0.116324 0.00589928 0
-0.116473 0 0
-0.12383 0.00627995 0
-0.123989 0 0
-0.12383 0.00627995 0
-0.123989 0 0
-0.13265 0.00672725 0
-0.13282 0 0
-0.13265 0.00672725 0
-0.13282 0 0
-0.143013 0.00725281 0
-0.143197 0 0
-0.143013 0.00725281 0
-0.143197 0 0
-0.15519 0.00787036 0
-0.15539 0 0
-0.15519 0.00787036 0
-0.15539 0 0
-0.169498 0.00859597 0
-0.169716 0 0
-0.169498 0.00859597 0
-0.169716 0 0
-0.18631 0.00944856 0
-0.186549 0 0
-0.18631 0.00944856 0
-0.186549 0 0
-0.206064 0.0104504 0
-0.206328 0 0
-0.206064 0.0104504 0
-0.206328 0 0
-0.229274 0.0116275 0
-0.229569 0 0
-0.229274 0.0116275 0
-0.229569 0 0
-0.256547 0.0130106 0
-0.256876 0 0
-0.256547 0.0130106 0
-0.256876 0 0
-0.288592 0.0146357 0
-0.288963 0 0
-0.288592 0.0146357 0
-0.288963 0 0
-0.326245 0.0165453 0
-0.326664 0 0
-0.326245 0.0165453 0
-0.326664 0 0
-0.370488 0.018789 0
-0.370964 0 0
-0.370488 0.018789 0
-0.370964 0 0
-0.422473 0.0214254 0
-0.423015 0 0
-0.422473 0.0214254 0
-0.423015 0 0
-0.483555 0.0245231 0
-0.484176 0 0
-0.483555 0.0245231 0
-0.484176 0 0
-0.555326 0.028163 0
-0.55604 0 0
-0.555326 0.028163 0
-0.55604 0 0
-0.639658 0.0324398 0
-0.64048 0 0
-0.639658 0.0324398 0
-0.64048 0 0
-0.738748 0.0374651 0
-0.739697 0 0
-0.738748 0.0374651 0
-0.739697 0 0
-0.855178 0.0433697 0
-0.856277 0 0
-0.855178 0.0433697 0
-0.856277 0 0
-0.991984 0.0503077 0
-0.993259 0 0
-0.991984 0.0503077 0
-0.993259 0 0
-1.15273 0.0584599 0
-1.15421 0 0
-1.15273 0.0584599 0
-1.15421 0 0
-1.34161 0.0680387 0
-1.34333 0 0
-1.34161 0.0680387 0
-1.34333 0 0
-1.56354 0.0792937 0
-1.56555 0 0
-1.56354 0.0792937 0
-1.56555 0 0
-1.82431 0.0925184 0
-1.82665 0 0
-1.82431 0.0925184 0
-1.82665 0 0
-2.13071 0.108057 0
-2.13345 0 0
-2.13071 0.108057 0
-2.13345 0 0
-2.49074 0.126316 0
-2.49394 0 0
-2.49074 0.126316 0
-2.49394 0 0
-2.91376 0.147769 0
-2.91751 0 0
-2.91376 0.147769 0
-2.91751 0 0
-3.41082 0.172977 0
-3.41521 0 0
-3.41082 0.172977 0
-3.41521 0 0
-3.99487 0.202597 0
-4 0 0
-0.1 0 0
-0.0998717 -0.00506492 0
-0.104633 0 0
-0.104499 -0.00529958 0
-0.104633 0 0
-0.104499 -0.00529958 0
-0.110077 0 0
-0.109936 -0.0055753 0
-0.110077 0 0
-0.109936 -0.0055753 0
-0.116473 0 0
-0.116324 -0.00589928 0
-0.116473 0 0
-0.116324 -0.00589928 0
-0.123989 0 0
-0.12383 -0.00627995 0
-0.123989 0 0
-0.12383 -0.00627995 0
-0.13282 0 0
-0.13265 -0.00672725 0
-0.13282 0 0
-0.13265 -0.00672725 0
-0.143197 0 0
-0.143013 -0.00725281 0
-0.143197 0 0
-0.143013 -0.00725281 0
-0.15539 0 0
-0.15519 -0.00787036 0
-0.15539 0 0
-0.15519 -0.00787036 0
-0.169716 0 0
-0.169498 -0.00859597 0
-0.169716 0 0
-0.169498 -0.00859597 0
-0.186549 0 0
-0.18631 -0.00944856 0
-0.186549 0 0
-0.18631 -0.00944856 0
-0.206328 0 0
-0.206064 -0.0104504 0
-0.206328 0 0
-0.206064 -0.0104504 0
-0.229569 0 0
-0.229274 -0.0116275 0
-0.229569 0 0
-0.229274 -0.0116275 0
-0.256876 0 0
-0.256547 -0.0130106 0
-0.256876 0 0
-0.256547 -0.0130106 0
-0.288963 0 0
-0.288592 -0.0146357 0
-0.288963 0 0
-0.288592 -0.0146357 0
-0.326664 0 0
-0.326245 -0.0165453 0
-0.326664 0 0
-0.326245 -0.0165453 0
-0.370964 0 0
-0.370488 -0.018789 0
-0.370964 0 0
-0.370488 -0.018789 0
-0.423015 0 0
-0.422473 -0.0214254 0
-0.423015 0 0
-0.422473 -0.0214254 0
-0.484176 0 0
-0.483555 -0.0245231 0
-0.484176 0 0
-0.483555 -0.0245231 0
-0.55604 0 0
-0.555326 -0.028163 0
-0.55604 0 0
-0.555326 -0.028163 0
-0.64048 0 0
-0.639658 -0.0324398 0
-0.64048 0 0
-0.639658 -0.0324398 0
-0.739697 0 0
-0.738748 -0.0374651 0
-0.739697 0 0
-0.738748 -0.0374651 0
-0.856277 0 0
-0.855178 -0.0433697 0
-0.856277 0 0
-0.855178 -0.0433697 0
-0.993259 0 0
-0.991984 -0.0503077 0
-0.993259 0 0
-0.991984 -0.0503077 0
-1.15421 0 0
-1.15273 -0.0584599 0
-1.15421 0 0
-1.15273 -0.0584599 0
-1.34333 0 0
-1.34161 -0.0680387 0
-1.34333 0 0
-1.34161 -0.0680387 0
-1.56555 0 0
-1.56354 -0.0792937 0
-1.56555 0 0
-1.56354 -0.0792937 0
-1.82665 0 0
-1.82431 -0.0925184 0
-1.82665 0 0
-1.82431 -0.0925184 0
-2.13345 0 0
-2.13071 -0.108057 0
-2.13345 0 0
-2.13071 -0.108057 0
-2.49394 0 0
-2.49074 -0.126316 0
-2.49394 0 0
-2.49074 -0.126316 0
-2.91751 0 0
-2.91376 -0.147769 0
-2.91751 0 0
-2.91376 -0.147769 0
-3.41521 0 0
-3.41082 -0.172977 0
-3.41521 0 0
-3.41082 -0.172977 0
-4 0 0
-3.99487 -0.202597 0
-0.0998717 -0.00506492 0
-0.0994869 -0.0101168 0
-0.104499 -0.00529958 0
-0.104096 -0.0105856 0
-0.104499 -0.00529958 0
-0.104096 -0.0105856 0
-0.109936 -0.0055753 0
-0.109512 -0.0111363 0
-0.109936 -0.0055753 0
-0.109512 -0.0111363 0
-0.116324 -0.00589928 0
-0.115876 -0.0117834 0
-0.116324 -0.00589928 0
-0.115876 -0.0117834 0
-0.12383 -0.00627995 0
-0.123353 -0.0125438 0
-0.12383 -0.00627995 0
-0.123353 -0.0125438 0
-0.13265 -0.00672725 0
-0.132139 -0.0134372 0
-0.13265 -0.00672725 0
-0.132139 -0.0134372 0
-0.143013 -0.00725281 0
-0.142462 -0.014487 0
-0.143013 -0.00725281 0
-0.142462 -0.014487 0
-0.15519 -0.00787036 0
-0.154592 -0.0157205 0
-0.15519 -0.00787036 0
-0.154592 -0.0157205 0
-0.169498 -0.00859597 0
-0.168845 -0.0171699 0
-0.169498 -0.00859597 0
-0.168845 -0.0171699 0
-0.18631 -0.00944856 0
-0.185592 -0.0188729 0
-0.18631 -0.00944856 0
-0.185592 -0.0188729 0
-0.206064 -0.0104504 0
-0.20527 -0.0208739 0
-0.206064 -0.0104504 0
-0.20527 -0.0208739 0
-0.229274 -0.0116275 0
-0.228391 -0.0232251 0
-0.229274 -0.0116275 0
-0.228391 -0.0232251 0
-0.256547 -0.0130106 0
-0.255559 -0.0259878 0
-0.256547 -0.0130106 0
-0.255559 -0.0259878 0
-0.288592 -0.0146357 0
-0.28748 -0.0292339 0
-0.288592 -0.0146357 0
-0.28748 -0.0292339 0
-0.326245 -0.0165453 0
-0.324988 -0.0330481 0
-0.326245 -0.0165453 0
-0.324988 -0.0330481 0
-0.370488 -0.018789 0
-0.36906 -0.0375298 0
-0.370488 -0.018789 0
-0.36906 -0.0375298 0
-0.422473 -0.0214254 0
-0.420845 -0.0427958 0
-0.422473 -0.0214254 0
-0.420845 -0.0427958 0
-0.483555 -0.0245231 0
-0.481692 -0.0489833 0
-0.483555 -0.0245231 0
-0.481692 -0.0489833 0
-0.555326 -0.028163 0
-0.553187 -0.0562536 0
-0.555326 -0.028163 0
-0.553187 -0.0562536 0
-0.639658 -0.0324398 0
-0.637194 -0.0647963 0
-0.639658 -0.0324398 0
-0.637194 -0.0647963 0
-0.738748 -0.0374651 0
-0.735902 -0.0748339 0
-0.738748 -0.0374651 0
-0.735902 -0.0748339 0
-0.855178 -0.0433697 0
-0.851884 -0.0866281 0
-0.855178 -0.0433697 0
-0.851884 -0.0866281 0
-0.991984 -0.0503077 0
-0.988163 -0.100486 0
-0.991984 -0.0503077 0
-0.988163 -0.100486 0
-1.15273 -0.0584599 0
-1.14829 -0.11677 0
-1.15273 -0.0584599 0
-1.14829 -0.11677 0
-1.34161 -0.0680387 0
-1.33644 -0.135903 0
-1.34161 -0.0680387 0
-1.33644 -0.135903 0
-1.56354 -0.0792937 0
-1.55752 -0.158384 0
-1.56354 -0.0792937 0
-1.55752 -0.158384 0
-1.82431 -0.0925184 0
-1.81728 -0.184799 0
-1.82431 -0.0925184 0
-1.81728 -0.184799 0
-2.13071 -0.108057 0
-2.1225 -0.215838 0
-2.13071 -0.108057 0
-2.1225 -0.215838 0
-2.49074 -0.126316 0
-2.48114 -0.252307 0
-2.49074 -0.126316 0
-2.48114 -0.252307 0
-2.91376 -0.147769 0
-2.90254 -0.295159 0
-2.91376 -0.147769 0
-2.90254 -0.295159 0
-3.41082 -0.172977 0
-3.39768 -0.345511 0
-3.41082 -0.172977 0
-3.39768 -0.345511 0
-3.99487 -0.202597 0
-3.97948 -0.404673 0
-0.0994869 -0.0101168 0
-0.0988468 -0.0151428 0
-0.104096 -0.0105856 0
-0.103426 -0.0158444 0
-0.104096 -0.0105856 0
-0.103426 -0.0158444 0
-0.109512 -0.0111363 0
-0.108808 -0.0166687 0
-0.109512 -0.0111363 0
-0.108808 -0.0166687 0
-0.115876 -0.0117834 0
-0.11513 -0.0176373 0
-0.115876 -0.0117834 0
-0.11513 -0.0176373 0
-0.123353 -0.0125438 0
-0.122559 -0.0187754 0
-0.123353 -0.0125438 0
-0.122559 -0.0187754 0
-0.132139 -0.0134372 0
-0.131289 -0.0201127 0
-0.132139 -0.0134372 0
-0.131289 -0.0201127 0
-0.142462 -0.014487 0
-0.141546 -0.021684 0
-0.142462 -0.014487 0
-0.141546 -0.021684 0
-0.154592 -0.0157205 0
-0.153598 -0.0235303 0
-0.154592 -0.0157205 0
-0.153598 -0.0235303 0
-0.168845 -0.0171699 0
-0.167759 -0.0256997 0
-0.168845 -0.0171699 0
-0.167759 -0.0256997 0
-0.185592 -0.0188729 0
-0.184398 -0.0282487 0
-0.185592 -0.0188729 0
-0.184398 -0.0282487 0
-0.20527 -0.0208739 0
-0.203949 -0.0312438 0
-0.20527 -0.0208739 0
-0.203949 -0.0312438 0
-0.228391 -0.0232251 0
-0.226922 -0.0347631 0
-0.228391 -0.0232251 0
-0.226922 -0.0347631 0
-0.255559 -0.0259878 0
-0.253914 -0.0388982 0
-0.255559 -0.0259878 0
-0.253914 -0.0388982 0
-0.28748 -0.0292339 0
-0.285631 -0.043757 0
-0.28748 -0.0292339 0
-0.285631 -0.043757 0
-0.324988 -0.0330481 0
-0.322897 -0.0494661 0
-0.324988 -0.0330481 0
-0.322897 -0.0494661 0
-0.36906 -0.0375298 0
-0.366686 -0.0561742 0
-0.36906 -0.0375298 0
-0.366686 -0.0561742 0
-0.420845 -0.0427958 0
-0.418137 -0.0640563 0
-0.420845 -0.0427958 0
-0.418137 -0.0640563 0
-0.481692 -0.0489833 0
-0.478593 -0.0733177 0
-0.481692 -0.0489833 0
-0.478593 -0.0733177 0
-0.553187 -0.0562536 0
-0.549628 -0.0841999 0
-0.553187 -0.0562536 0
-0.549628 -0.0841999 0
-0.637194 -0.0647963 0
-0.633094 -0.0969865 0
-0.637194 -0.0647963 0
-0.633094 -0.0969865 0
-0.735902 -0.0748339 0
-0.731167 -0.112011 0
-0.735902 -0.0748339 0
-0.731167 -0.112011 0
-0.851884 -0.0866281 0
-0.846403 -0.129664 0
-0.851884 -0.0866281 0
-0.846403 -0.129664 0
-0.988163 -0.100486 0
-0.981805 -0.150407 0
-0.988163 -0.100486 0
-0.981805 -0.150407 0
-1.14829 -0.11677 0
-1.1409 -0.17478 0
-1.14829 -0.11677 0
-1.1409 -0.17478 0
-1.33644 -0.135903 0
-1.32784 -0.203418 0
-1.33644 -0.135903 0
-1.32784 -0.203418 0
-1.55752 -0.158384 0
-1.5475 -0.237068 0
-1.55752 -0.158384 0
-1.5475 -0.237068 0
-1.81728 -0.184799 0
-1.80559 -0.276606 0
-1.81728 -0.184799 0
-1.80559 -0.276606 0
-2.1225 -0.215838 0
-2.10885 -0.323064 0
-2.1225 -0.215838 0
-2.10885 -0.323064 0
-2.48114 -0.252307 0
-2.46518 -0.377651 0
-2.48114 -0.252307 0
-2.46518 -0.377651 0
-2.90254 -0.295159 0
-2.88387 -0.441792 0
-2.90254 -0.295159 0
-2.88387 -0.441792 0
-3.39768 -0.345511 0
-3.37582 -0.517157 0
-3.39768 -0.345511 0
-3.37582 -0.517157 0
-3.97948 -0.404673 0
-3.95387 -0.605711 0
-0.0988468 -0.0151428 0
-0.097953 -0.0201299 0
-0.103426 -0.0158444 0
-0.102491 -0.0210625 0
-0.103426 -0.0158444 0
-0.102491 -0.0210625 0
-0.108808 -0.0166687 0
-0.107824 -0.0221583 0
-0.108808 -0.0166687 0
-0.107824 -0.0221583 0
-0.11513 -0.0176373 0
-0.114089 -0.0234459 0
-0.11513 -0.0176373 0
-0.114089 -0.0234459 0
-0.122559 -0.0187754 0
-0.121451 -0.0249589 0
-0.122559 -0.0187754 0
-0.121451 -0.0249589 0
-0.131289 -0.0201127 0
-0.130102 -0.0267366 0
-0.131289 -0.0201127 0
-0.130102 -0.0267366 0
-0.141546 -0.021684 0
-0.140266 -0.0288254 0
-0.141546 -0.021684 0
-0.140266 -0.0288254 0
-0.153598 -0.0235303 0
-0.152209 -0.0312797 0
-0.153598 -0.0235303 0
-0.152209 -0.0312797 0
-0.167759 -0.0256997 0
-0.166242 -0.0341636 0
-0.167759 -0.0256997 0
-0.166242 -0.0341636 0
-0.184398 -0.0282487 0
-0.182731 -0.0375521 0
-0.184398 -0.0282487 0
-0.182731 -0.0375521 0
-0.203949 -0.0312438 0
-0.202105 -0.0415336 0
-0.203949 -0.0312438 0
-0.202105 -0.0415336 0
-0.226922 -0.0347631 0
-0.22487 -0.0462119 0
-0.226922 -0.0347631 0
-0.22487 -0.0462119 0
-0.253914 -0.0388982 0
-0.251618 -0.0517089 0
-0.253914 -0.0388982 0
-0.251618 -0.0517089 0
-0.285631 -0.043757 0
-0.283048 -0.0581678 0
-0.285631 -0.043757 0
-0.283048 -0.0581678 0
-0.322897 -0.0494661 0
-0.319978 -0.0657571 0
-0.322897 -0.0494661 0
-0.319978 -0.0657571 0
-0.366686 -0.0561742 0
-0.36337 -0.0746745 0
-0.366686 -0.0561742 0
-0.36337 -0.0746745 0
-0.418137 -0.0640563 0
-0.414356 -0.0851524 0
-0.418137 -0.0640563 0
-0.414356 -0.0851524 0
-0.478593 -0.0733177 0
-0.474265 -0.097464 0
-0.478593 -0.0733177 0
-0.474265 -0.097464 0
-0.549628 -0.0841999 0
-0.544658 -0.11193 0
-0.549628 -0.0841999 0
-0.544658 -0.11193 0
-0.633094 -0.0969865 0
-0.62737 -0.128928 0
-0.633094 -0.0969865 0
-0.62737 -0.128928 0
-0.731167 -0.112011 0
-0.724556 -0.1489 0
-0.731167 -0.112011 0
-0.724556 -0.1489 0
-0.846403 -0.129664 0
-0.838749 -0.172367 0
-0.846403 -0.129664 0
-0.838749 -0.172367 0
-0.981805 -0.150407 0
-0.972927 -0.199942 0
-0.981805 -0.150407 0
-0.972927 -0.199942 0
-1.1409 -0.17478 0
-1.13059 -0.232341 0
-1.1409 -0.17478 0
-1.13059 -0.232341 0
-1.32784 -0.203418 0
-1.31583 -0.270411 0
-1.32784 -0.203418 0
-1.31583 -0.270411 0
-1.5475 -0.237068 0
-1.5335 -0.315143 0
-1.5475 -0.237068 0
-1.5335 -0.315143 0
-1.80559 -0.276606 0
-1.78926 -0.367703 0
-1.80559 -0.276606 0
-1.78926 -0.367703 0
-2.10885 -0.323064 0
-2.08978 -0.42946 0
-2.10885 -0.323064 0
-2.08978 -0.42946 0
-2.46518 -0.377651 0
-2.44289 -0.502026 0
-2.46518 -0.377651 0
-2.44289 -0.502026 0
-2.88387 -0.441792 0
-2.85779 -0.58729 0
-2.88387 -0.441792 0
-2.85779 -0.58729 0
-3.37582 -0.517157 0
-3.3453 -0.687476 0
-3.37582 -0.517157 0
-3.3453 -0.687476 0
-3.95387 -0.605711 0
-3.91812 -0.805194 0
-0.097953 -0.0201299 0
-0.0968077 -0.0250653 0
-0.102491 -0.0210625 0
-0.101293 -0.0262265 0
-0.102491 -0.0210625 0
-0.101293 -0.0262265 0
-0.107824 -0.0221583 0
-0.106563 -0.0275911 0
-0.107824 -0.0221583 0
-0.106563 -0.0275911 0
-0.114089 -0.0234459 0
-0.112755 -0.0291944 0
-0.114089 -0.0234459 0
-0.112755 -0.0291944 0
-0.121451 -0.0249589 0
-0.120031 -0.0310782 0
-0.121451 -0.0249589 0
-0.120031 -0.0310782 0
-0.130102 -0.0267366 0
-0.12858 -0.0332918 0
-0.130102 -0.0267366 0
-0.12858 -0.0332918 0
-0.140266 -0.0288254 0
-0.138626 -0.0358927 0
-0.140266 -0.0288254 0
-0.138626 -0.0358927 0
-0.152209 -0.0312797 0
-0.150429 -0.0389488 0
-0.152209 -0.0312797 0
-0.150429 -0.0389488 0
-0.166242 -0.0341636 0
-0.164298 -0.0425397 0
-0.166242 -0.0341636 0
-0.164298 -0.0425397 0
-0.182731 -0.0375521 0
-0.180594 -0.046759 0
-0.182731 -0.0375521 0
-0.180594 -0.046759 0
-0.202105 -0.0415336 0
-0.199742 -0.0517167 0
-0.202105 -0.0415336 0
-0.199742 -0.0517167 0
-0.22487 -0.0462119 0
-0.22224 -0.057542 0
-0.22487 -0.0462119 0
-0.22224 -0.057542 0
-0.251618 -0.0517089 0
-0.248676 -0.0643867 0
-0.251618 -0.0517089 0
-0.248676 -0.0643867 0
-0.283048 -0.0581678 0
-0.279738 -0.0724293 0
-0.283048 -0.0581678 0
-0.279738 -0.0724293 0
-0.319978 -0.0657571 0
-0.316236 -0.0818793 0
-0.319978 -0.0657571 0
-0.316236 -0.0818793 0
-0.36337 -0.0746745 0
-0.359122 -0.092983 0
-0.36337 -0.0746745 0
-0.359122 -0.092983 0
-0.414356 -0.0851524 0
-0.409512 -0.10603 0
-0.414356 -0.0851524 0
-0.409512 -0.10603 0
-0.474265 -0.097464 0
-0.46872 -0.12136 0
-0.474265 -0.097464 0
-0.46872 -0.12136 0
-0.544658 -0.11193 0
-0.53829 -0.139373 0
-0.544658 -0.11193 0
-0.53829 -0.139373 0
-0.62737 -0.128928 0
-0.620034 -0.160538 0
-0.62737 -0.128928 0
-0.620034 -0.160538 0
-0.724556 -0.1489 0
-0.716084 -0.185407 0
-0.724556 -0.1489 0
-0.716084 -0.185407 0
-0.838749 -0.172367 0
-0.828943 -0.214628 0
-0.838749 -0.172367 0
-0.828943 -0.214628 0
-0.972927 -0.199942 0
-0.961551 -0.248963 0
-0.972927 -0.199942 0
-0.961551 -0.248963 0
-1.13059 -0.232341 0
-1.11737 -0.289306 0
-1.13059 -0.232341 0
-1.11737 -0.289306 0
-1.31583 -0.270411 0
-1.30045 -0.33671 0
-1.31583 -0.270411 0
-1.30045 -0.33671 0
-1.5335 -0.315143 0
-1.51557 -0.392409 0
-1.5335 -0.315143 0
-1.51557 -0.392409 0
-1.78926 -0.367703 0
-1.76834 -0.457855 0
-1.78926 -0.367703 0
-1.76834 -0.457855 0
-2.08978 -0.42946 0
-2.06534 -0.534755 0
-2.08978 -0.42946 0
-2.06534 -0.534755 0
-2.44289 -0.502026 0
-2.41432 -0.625112 0
-2.44289 -0.502026 0
-2.41432 -0.625112 0
-2.85779 -0.58729 0
-2.82437 -0.731281 0
-2.85779 -0.58729 0
-2.82437 -0.731281 0
-3.3453 -0.687476 0
-3.30618 -0.85603 0
-3.3453 -0.687476 0
-3.30618 -0.85603 0
-3.91812 -0.805194 0
-3.87231 -1.00261 0
-0.0968077 -0.0250653 0
-0.0954139 -0.0299363 0
-0.101293 -0.0262265 0
-0.0998345 -0.0313233 0
-0.101293 -0.0262265 0
-0.0998345 -0.0313233 0
-0.106563 -0.0275911 0
-0.105029 -0.032953 0
-0.106563 -0.0275911 0
-0.105029 -0.032953 0
-0.112755 -0.0291944 0
-0.111132 -0.0348678 0
-0.112755 -0.0291944 0
-0.111132 -0.0348678 0
-0.120031 -0.0310782 0
-0.118303 -0.0371178 0
-0.120031 -0.0310782 0
-0.118303 -0.0371178 0
-0.12858 -0.0332918 0
-0.126729 -0.0397615 0
-0.12858 -0.0332918 0
-0.126729 -0.0397615 0
-0.138626 -0.0358927 0
-0.13663 -0.0428679 0
-0.138626 -0.0358927 0
-0.13663 -0.0428679 0
-0.150429 -0.0389488 0
-0.148263 -0.0465179 0
-0.150429 -0.0389488 0
-0.148263 -0.0465179 0
-0.164298 -0.0425397 0
-0.161933 -0.0508067 0
-0.164298 -0.0425397 0
-0.161933 -0.0508067 0
-0.180594 -0.046759 0
-0.177994 -0.0558459 0
-0.180594 -0.046759 0
-0.177994 -0.0558459 0
-0.199742 -0.0517167 0
-0.196866 -0.0617671 0
-0.199742 -0.0517167 0
-0.196866 -0.0617671 0
-0.22224 -0.057542 0
-0.219041 -0.0687245 0
-0.22224 -0.057542 0
-0.219041 -0.0687245 0
-0.248676 -0.0643867 0
-0.245096 -0.0768993 0
-0.248676 -0.0643867 0
-0.245096 -0.0768993 0
-0.279738 -0.0724293 0
-0.275711 -0.0865048 0
-0.279738 -0.0724293 0
-0.275711 -0.0865048 0
-0.316236 -0.0818793 0
-0.311683 -0.0977913 0
-0.316236 -0.0818793 0
-0.311683 -0.0977913 0
-0.359122 -0.092983 0
-0.353951 -0.111053 0
-0.359122 -0.092983 0
-0.353951 -0.111053 0
-0.409512 -0.10603 0
-0.403616 -0.126635 0
-0.409512 -0.10603 0
-0.403616 -0.126635 0
-0.46872 -0.12136 0
-0.461972 -0.144945 0
-0.46872 -0.12136 0
-0.461972 -0.144945 0
-0.53829 -0.139373 0
-0.53054 -0.166458 0
-0.53829 -0.139373 0
-0.53054 -0.166458 0
-0.620034 -0.160538 0
-0.611107 -0.191736 0
-0.620034 -0.160538 0
-0.611107 -0.191736 0
-0.716084 -0.185407 0
-0.705774 -0.221438 0
-0.716084 -0.185407 0
-0.705774 -0.221438 0
-0.828943 -0.214628 0
-0.817008 -0.256338 0
-0.828943 -0.214628 0
-0.817008 -0.256338 0
-0.961551 -0.248963 0
-0.947707 -0.297345 0
-0.961551 -0.248963 0
-0.947707 -0.297345 0
-1.11737 -0.289306 0
-1.10128 -0.345529 0
-1.11737 -0.289306 0
-1.10128 -0.345529 0
-1.30045 -0.33671 0
-1.28173 -0.402144 0
-1.30045 -0.33671 0
-1.28173 -0.402144 0
-1.51557 -0.392409 0
-1.49375 -0.468668 0
-1.51557 -0.392409 0
-1.49375 -0.468668 0
-1.76834 -0.457855 0
-1.74288 -0.546832 0
-1.76834 -0.457855 0
-1.74288 -0.546832 0
-2.06534 -0.534755 0
-2.03561 -0.638676 0
-2.06534 -0.534755 0
-2.03561 -0.638676 0
-2.41432 -0.625112 0
-2.37956 -0.746593 0
-2.41432 -0.625112 0
-2.37956 -0.746593 0
-2.82437 -0.731281 0
-2.78371 -0.873395 0
-2.82437 -0.731281 0
-2.78371 -0.873395 0
-3.30618 -0.85603 0
-3.25858 -1.02239 0
-3.30618 -0.85603 0
-3.25858 -1.02239 0
-3.87231 -1.00261 0
-3.81656 -1.19745 0
-0.0954139 -0.0299363 0
-0.0937752 -0.0347305 0
-0.0998345 -0.0313233 0
-0.0981199 -0.0363396 0
-0.0998345 -0.0313233 0
-0.0981199 -0.0363396 0
-0.105029 -0.032953 0
-0.103225 -0.0382303 0
-0.105029 -0.032953 0
-0.103225 -0.0382303 0
-0.111132 -0.0348678 0
-0.109223 -0.0404518 0
-0.111132 -0.0348678 0
-0.109223 -0.0404518 0
-0.118303 -0.0371178 0
-0.116271 -0.0430621 0
-0.118303 -0.0371178 0
-0.116271 -0.0430621 0
-0.126729 -0.0397615 0
-0.124553 -0.0461292 0
-0.126729 -0.0397615 0
-0.124553 -0.0461292 0
-0.13663 -0.0428679 0
-0.134283 -0.0497331 0
-0.13663 -0.0428679 0
-0.134283 -0.0497331 0
-0.148263 -0.0465179 0
-0.145717 -0.0539676 0
-0.148263 -0.0465179 0
-0.145717 -0.0539676 0
-0.161933 -0.0508067 0
-0.159151 -0.0589432 0
-0.161933 -0.0508067 0
-0.159151 -0.0589432 0
-0.177994 -0.0558459 0
-0.174937 -0.0647895 0
-0.177994 -0.0558459 0
-0.174937 -0.0647895 0
-0.196866 -0.0617671 0
-0.193485 -0.0716589 0
-0.196866 -0.0617671 0
-0.193485 -0.0716589 0
-0.219041 -0.0687245 0
-0.215279 -0.0797305 0
-0.219041 -0.0687245 0
-0.215279 -0.0797305 0
-0.245096 -0.0768993 0
-0.240886 -0.0892145 0
-0.245096 -0.0768993 0
-0.240886 -0.0892145 0
-0.275711 -0.0865048 0
-0.270976 -0.100358 0
-0.275711 -0.0865048 0
-0.270976 -0.100358 0
-0.311683 -0.0977913 0
-0.30633 -0.113452 0
-0.311683 -0.0977913 0
-0.30633 -0.113452 0
-0.353951 -0.111053 0
-0.347872 -0.128838 0
-0.353951 -0.111053 0
-0.347872 -0.128838 0
-0.403616 -0.126635 0
-0.396684 -0.146916 0
-0.403616 -0.126635 0
-0.396684 -0.146916 0
-0.461972 -0.144945 0
-0.454037 -0.168157 0
-0.461972 -0.144945 0
-0.454037 -0.168157 0
-0.53054 -0.166458 0
-0.521428 -0.193116 0
-0.53054 -0.166458 0
-0.521428 -0.193116 0
-0.611107 -0.191736 0
-0.600612 -0.222442 0
-0.611107 -0.191736 0
-0.600612 -0.222442 0
-0.705774 -0.221438 0
-0.693653 -0.256901 0
-0.705774 -0.221438 0
-0.693653 -0.256901 0
-0.817008 -0.256338 0
-0.802976 -0.29739 0
-0.817008 -0.256338 0
-0.802976 -0.29739 0
-0.947707 -0.297345 0
-0.931431 -0.344964 0
-0.947707 -0.297345 0
-0.931431 -0.344964 0
-1.10128 -0.345529 0
-1.08237 -0.400864 0
-1.10128 -0.345529 0
-1.08237 -0.400864 0
-1.28173 -0.402144 0
-1.25971 -0.466546 0
-1.28173 -0.402144 0
-1.25971 -0.466546 0
-1.49375 -0.468668 0
-1.4681 -0.543723 0
-1.49375 -0.468668 0
-1.4681 -0.543723 0
-1.74288 -0.546832 0
-1.71295 -0.634406 0
-1.74288 -0.546832 0
-1.71295 -0.634406 0
-2.03561 -0.638676 0
-2.00065 -0.740958 0
-2.03561 -0.638676 0
-2.00065 -0.740958 0
-2.37956 -0.746593 0
-2.33869 -0.866157 0
-2.37956 -0.746593 0
-2.33869 -0.866157 0
-2.78371 -0.873395 0
-2.7359 -1.01327 0
-2.78371 -0.873395 0
-2.7359 -1.01327 0
-3.25858 -1.02239 0
-3.20262 -1.18612 0
-3.25858 -1.02239 0
-3.20262 -1.18612 0
-3.81656 -1.19745 0
-3.75101 -1.38922 0
-0.0937752 -0.0347305 0
-0.0918958 -0.0394356 0
-0.0981199 -0.0363396 0
-0.0961534 -0.0412627 0
-0.0981199 -0.0363396 0
-0.0961534 -0.0412627 0
-0.103225 -0.0382303 0
-0.101156 -0.0434095 0
-0.103225 -0.0382303 0
-0.101156 -0.0434095 0
-0.109223 -0.0404518 0
-0.107034 -0.045932 0
-0.109223 -0.0404518 0
-0.107034 -0.045932 0
-0.116271 -0.0430621 0
-0.113941 -0.0488959 0
-0.116271 -0.0430621 0
-0.113941 -0.0488959 0
-0.124553 -0.0461292 0
-0.122056 -0.0523785 0
-0.124553 -0.0461292 0
-0.122056 -0.0523785 0
-0.134283 -0.0497331 0
-0.131592 -0.0564706 0
-0.134283 -0.0497331 0
-0.131592 -0.0564706 0
-0.145717 -0.0539676 0
-0.142797 -0.0612788 0
-0.145717 -0.0539676 0
-0.142797 -0.0612788 0
-0.159151 -0.0589432 0
-0.155962 -0.0669284 0
-0.159151 -0.0589432 0
-0.155962 -0.0669284 0
-0.174937 -0.0647895 0
-0.171431 -0.0735668 0
-0.174937 -0.0647895 0
-0.171431 -0.0735668 0
-0.193485 -0.0716589 0
-0.189607 -0.0813668 0
-0.193485 -0.0716589 0
-0.189607 -0.0813668 0
-0.215279 -0.0797305 0
-0.210964 -0.0905318 0
-0.215279 -0.0797305 0
-0.210964 -0.0905318 0
-0.240886 -0.0892145 0
-0.236059 -0.101301 0
-0.240886 -0.0892145 0
-0.236059 -0.101301 0
-0.270976 -0.100358 0
-0.265545 -0.113954 0
-0.270976 -0.100358 0
-0.265545 -0.113954 0
-0.30633 -0.113452 0
-0.300191 -0.128822 0
-0.30633 -0.113452 0
-0.300191 -0.128822 0
-0.347872 -0.128838 0
-0.3409 -0.146292 0
-0.347872 -0.128838 0
-0.3409 -0.146292 0
-0.396684 -0.146916 0
-0.388733 -0.166819 0
-0.396684 -0.146916 0
-0.388733 -0.166819 0
-0.454037 -0.168157 0
-0.444938 -0.190938 0
-0.454037 -0.168157 0
-0.444938 -0.190938 0
-0.521428 -0.193116 0
-0.510977 -0.219278 0
-0.521428 -0.193116 0
-0.510977 -0.219278 0
-0.600612 -0.222442 0
-0.588574 -0.252577 0
-0.600612 -0.222442 0
-0.588574 -0.252577 0
-0.693653 -0.256901 0
-0.679751 -0.291704 0
-0.693653 -0.256901 0
-0.679751 -0.291704 0
-0.802976 -0.29739 0
-0.786883 -0.337678 0
-0.802976 -0.29739 0
-0.786883 -0.337678 0
-0.931431 -0.344964 0
-0.912763 -0.391697 0
-0.931431 -0.344964 0
-0.912763 -0.391697 0
-1.08237 -0.400864 0
-1.06067 -0.45517 0
-1.08237 -0.400864 0
-1.06067 -0.45517 0
-1.25971 -0.466546 0
-1.23447 -0.529751 0
-1.25971 -0.466546 0
-1.23447 -0.529751 0
-1.4681 -0.543723 0
-1.43867 -0.617383 0
-1.4681 -0.543723 0
-1.43867 -0.617383 0
-1.71295 -0.634406 0
-1.67862 -0.720351 0
-1.71295 -0.634406 0
-1.67862 -0.720351 0
-2.00065 -0.740958 0
-1.96055 -0.841339 0
-2.00065 -0.740958 0
-1.96055 -0.841339 0
-2.33869 -0.866157 0
-2.29182 -0.983499 0
-2.33869 -0.866157 0
-2.29182 -0.983499 0
-2.7359 -1.01327 0
-2.68107 -1.15054 0
-2.7359 -1.01327 0
-2.68107 -1.15054 0
-3.20262 -1.18612 0
-3.13843 -1.34681 0
-3.20262 -1.18612 0
-3.13843 -1.34681 0
-3.75101 -1.38922 0
-3.67583 -1.57742 0
-0.0918958 -0.0394356 0
-0.0897805 -0.0440394 0
-0.0961534 -0.0412627 0
-0.09394 -0.0460798 0
-0.0961534 -0.0412627 0
-0.09394 -0.0460798 0
-0.101156 -0.0434095 0
-0.0988275 -0.0484772 0
-0.101156 -0.0434095 0
-0.0988275 -0.0484772 0
-0.107034 -0.045932 0
-0.10457 -0.0512942 0
-0.107034 -0.045932 0
-0.10457 -0.0512942 0
-0.113941 -0.0488959 0
-0.111318 -0.0546042 0
-0.113941 -0.0488959 0
-0.111318 -0.0546042 0
-0.122056 -0.0523785 0
-0.119247 -0.0584934 0
-0.122056 -0.0523785 0
-0.119247 -0.0584934 0
-0.131592 -0.0564706 0
-0.128563 -0.0630632 0
-0.131592 -0.0564706 0
-0.128563 -0.0630632 0
-0.142797 -0.0612788 0
-0.13951 -0.0684327 0
-0.142797 -0.0612788 0
-0.13951 -0.0684327 0
-0.155962 -0.0669284 0
-0.152372 -0.0747419 0
-0.155962 -0.0669284 0
-0.152372 -0.0747419 0
-0.171431 -0.0735668 0
-0.167485 -0.0821552 0
-0.171431 -0.0735668 0
-0.167485 -0.0821552 0
-0.189607 -0.0813668 0
-0.185243 -0.0908658 0
-0.189607 -0.0813668 0
-0.185243 -0.0908658 0
-0.210964 -0.0905318 0
-0.206108 -0.101101 0
-0.210964 -0.0905318 0
-0.206108 -0.101101 0
-0.236059 -0.101301 0
-0.230625 -0.113127 0
-0.236059 -0.101301 0
-0.230625 -0.113127 0
-0.265545 -0.113954 0
-0.259432 -0.127258 0
-0.265545 -0.113954 0
-0.259432 -0.127258 0
-0.300191 -0.128822 0
-0.293281 -0.143861 0
-0.300191 -0.128822 0
-0.293281 -0.143861 0
-0.3409 -0.146292 0
-0.333053 -0.16337 0
-0.3409 -0.146292 0
-0.333053 -0.16337 0
-0.388733 -0.166819 0
-0.379785 -0.186294 0
-0.388733 -0.166819 0
-0.379785 -0.186294 0
-0.444938 -0.190938 0
-0.434696 -0.213228 0
-0.444938 -0.190938 0
-0.434696 -0.213228 0
-0.510977 -0.219278 0
-0.499215 -0.244877 0
-0.510977 -0.219278 0
-0.499215 -0.244877 0
-0.588574 -0.252577 0
-0.575026 -0.282064 0
-0.588574 -0.252577 0
-0.575026 -0.282064 0
-0.679751 -0.291704 0
-0.664104 -0.325758 0
-0.679751 -0.291704 0
-0.664104 -0.325758 0
-0.786883 -0.337678 0
-0.76877 -0.3771 0
-0.786883 -0.337678 0
-0.76877 -0.3771 0
-0.912763 -0.391697 0
-0.891752 -0.437425 0
-0.912763 -0.391697 0
-0.891752 -0.437425 0
-1.06067 -0.45517 0
-1.03626 -0.508308 0
-1.06067 -0.45517 0
-1.03626 -0.508308 0
-1.23447 -0.529751 0
-1.20605 -0.591596 0
-1.23447 -0.529751 0
-1.20605 -0.591596 0
-1.43867 -0.617383 0
-1.40556 -0.689459 0
-1.43867 -0.617383 0
-1.40556 -0.689459 0
-1.67862 -0.720351 0
-1.63998 -0.804447 0
-1.67862 -0.720351 0
-1.63998 -0.804447 0
-1.96055 -0.841339 0
-1.91542 -0.939559 0
-1.96055 -0.841339 0
-1.91542 -0.939559 0
-2.29182 -0.983499 0
-2.23907 -1.09832 0
-2.29182 -0.983499 0
-2.23907 -1.09832 0
-2.68107 -1.15054 0
-2.61935 -1.28485 0
-2.68107 -1.15054 0
-2.61935 -1.28485 0
-3.13843 -1.34681 0
-3.06619 -1.50404 0
-3.13843 -1.34681 0
-3.06619 -1.50404 0
-3.67583 -1.57742 0
-3.59122 -1.76158 0
-0.0897805 -0.0440394 0
-0.0874347 -0.0485302 0
-0.09394 -0.0460798 0
-0.0914856 -0.0507786 0
-0.09394 -0.0460798 0
-0.0914856 -0.0507786 0
-0.0988275 -0.0484772 0
-0.0962454 -0.0534205 0
-0.0988275 -0.0484772 0
-0.0962454 -0.0534205 0
-0.10457 -0.0512942 0
-0.101838 -0.0565248 0
-0.10457 -0.0512942 0
-0.101838 -0.0565248 0
-0.111318 -0.0546042 0
-0.10841 -0.0601722 0
-0.111318 -0.0546042 0
-0.10841 -0.0601722 0
-0.119247 -0.0584934 0
-0.116131 -0.064458 0
-0.119247 -0.0584934 0
-0.116131 -0.064458 0
-0.128563 -0.0630632 0
-0.125204 -0.0694938 0
-0.128563 -0.0630632 0
-0.125204 -0.0694938 0
-0.13951 -0.0684327 0
-0.135864 -0.0754109 0
-0.13951 -0.0684327 0
-0.135864 -0.0754109 0
-0.152372 -0.0747419 0
-0.14839 -0.0823634 0
-0.152372 -0.0747419 0
-0.14839 -0.0823634 0
-0.167485 -0.0821552 0
-0.163109 -0.0905327 0
-0.167485 -0.0821552 0
-0.163109 -0.0905327 0
-0.185243 -0.0908658 0
-0.180402 -0.100132 0
-0.185243 -0.0908658 0
-0.180402 -0.100132 0
-0.206108 -0.101101 0
-0.200723 -0.11141 0
-0.206108 -0.101101 0
-0.200723 -0.11141 0
-0.230625 -0.113127 0
-0.224599 -0.124663 0
-0.230625 -0.113127 0
-0.224599 -0.124663 0
-0.259432 -0.127258 0
-0.252654 -0.140234 0
-0.259432 -0.127258 0
-0.252654 -0.140234 0
-0.293281 -0.143861 0
-0.285618 -0.158531 0
-0.293281 -0.143861 0
-0.285618 -0.158531 0
-0.333053 -0.16337 0
-0.324351 -0.180029 0
-0.333053 -0.16337 0
-0.324351 -0.180029 0
-0.379785 -0.186294 0
-0.369862 -0.20529 0
-0.379785 -0.186294 0
-0.369862 -0.20529 0
-0.434696 -0.213228 0
-0.423338 -0.234972 0
-0.434696 -0.213228 0
-0.423338 -0.234972 0
-0.499215 -0.244877 0
-0.486172 -0.269847 0
-0.499215 -0.244877 0
-0.486172 -0.269847 0
-0.575026 -0.282064 0
-0.560002 -0.310826 0
-0.575026 -0.282064 0
-0.560002 -0.310826 0
-0.664104 -0.325758 0
-0.646752 -0.358977 0
-0.664104 -0.325758 0
-0.646752 -0.358977 0
-0.76877 -0.3771 0
-0.748683 -0.415553 0
-0.76877 -0.3771 0
-0.748683 -0.415553 0
-0.891752 -0.437425 0
-0.868453 -0.482031 0
-0.891752 -0.437425 0
-0.868453 -0.482031 0
-1.03626 -0.508308 0
-1.00918 -0.560141 0
-1.03626 -0.508308 0
-1.00918 -0.560141 0
-1.20605 -0.591596 0
-1.17454 -0.651922 0
-1.20605 -0.591596 0
-1.17454 -0.651922 0
-1.40556 -0.689459 0
-1.36883 -0.759764 0
-1.40556 -0.689459 0
-1.36883 -0.759764 0
-1.63998 -0.804447 0
-1.59713 -0.886478 0
-1.63998 -0.804447 0
-1.59713 -0.886478 0
-1.91542 -0.939559 0
-1.86537 -1.03537 0
-1.91542 -0.939559 0
-1.86537 -1.03537 0
-2.23907 -1.09832 0
-2.18057 -1.21031 0
-2.23907 -1.09832 0
-2.18057 -1.21031 0
-2.61935 -1.28485 0
-2.55091 -1.41587 0
-2.61935 -1.28485 0
-2.55091 -1.41587 0
-3.06619 -1.50404 0
-2.98607 -1.65741 0
-3.06619 -1.50404 0
-2.98607 -1.65741 0
-3.59122 -1.76158 0
-3.49739 -1.94121 0
-0.0874347 -0.0485302 0
-0.0848644 -0.0528964 0
-0.0914856 -0.0507786 0
-0.0887962 -0.0553471 0
-0.0914856 -0.0507786 0
-0.0887962 -0.0553471 0
-0.0962454 -0.0534205 0
-0.0934161 -0.0582267 0
-0.0962454 -0.0534205 0
-0.0934161 -0.0582267 0
-0.101838 -0.0565248 0
-0.0988445 -0.0616102 0
-0.101838 -0.0565248 0
-0.0988445 -0.0616102 0
-0.10841 -0.0601722 0
-0.105223 -0.0655859 0
-0.10841 -0.0601722 0
-0.105223 -0.0655859 0
-0.116131 -0.064458 0
-0.112717 -0.0702572 0
-0.116131 -0.064458 0
-0.112717 -0.0702572 0
-0.125204 -0.0694938 0
-0.121523 -0.0757461 0
-0.125204 -0.0694938 0
-0.121523 -0.0757461 0
-0.135864 -0.0754109 0
-0.131871 -0.0821955 0
-0.135864 -0.0754109 0
-0.131871 -0.0821955 0
-0.14839 -0.0823634 0
-0.144028 -0.0897736 0
-0.14839 -0.0823634 0
-0.144028 -0.0897736 0
-0.163109 -0.0905327 0
-0.158314 -0.0986778 0
-0.163109 -0.0905327 0
-0.158314 -0.0986778 0
-0.180402 -0.100132 0
-0.175099 -0.10914 0
-0.180402 -0.100132 0
-0.175099 -0.10914 0
-0.200723 -0.11141 0
-0.194822 -0.121434 0
-0.200723 -0.11141 0
-0.194822 -0.121434 0
-0.224599 -0.124663 0
-0.217997 -0.135878 0
-0.224599 -0.124663 0
-0.217997 -0.135878 0
-0.252654 -0.140234 0
-0.245227 -0.152851 0
-0.252654 -0.140234 0
-0.245227 -0.152851 0
-0.285618 -0.158531 0
-0.277222 -0.172794 0
-0.285618 -0.158531 0
-0.277222 -0.172794 0
-0.324351 -0.180029 0
-0.314816 -0.196226 0
-0.324351 -0.180029 0
-0.314816 -0.196226 0
-0.369862 -0.20529 0
-0.35899 -0.22376 0
-0.369862 -0.20529 0
-0.35899 -0.22376 0
-0.423338 -0.234972 0
-0.410893 -0.256112 0
-0.423338 -0.234972 0
-0.410893 -0.256112 0
-0.486172 -0.269847 0
-0.47188 -0.294125 0
-0.486172 -0.269847 0
-0.47188 -0.294125 0
-0.560002 -0.310826 0
-0.54354 -0.338791 0
-0.560002 -0.310826 0
-0.54354 -0.338791 0
-0.646752 -0.358977 0
-0.62774 -0.391273 0
-0.646752 -0.358977 0
-0.62774 -0.391273 0
-0.748683 -0.415553 0
-0.726675 -0.45294 0
-0.748683 -0.415553 0
-0.726675 -0.45294 0
-0.868453 -0.482031 0
-0.842923 -0.525398 0
-0.868453 -0.482031 0
-0.842923 -0.525398 0
-1.00918 -0.560141 0
-0.979516 -0.610537 0
-1.00918 -0.560141 0
-0.979516 -0.610537 0
-1.17454 -0.651922 0
-1.14001 -0.710575 0
-1.17454 -0.651922 0
-1.14001 -0.710575 0
-1.36883 -0.759764 0
-1.32859 -0.828119 0
-1.36883 -0.759764 0
-1.32859 -0.828119 0
-1.59713 -0.886478 0
-1.55018 -0.966234 0
-1.59713 -0.886478 0
-1.55018 -0.966234 0
-1.86537 -1.03537 0
-1.81054 -1.12852 0
-1.86537 -1.03537 0
-1.81054 -1.12852 0
-2.18057 -1.21031 0
-2.11647 -1.3192 0
-2.18057 -1.21031 0
-2.11647 -1.3192 0
-2.55091 -1.41587 0
-2.47593 -1.54326 0
-2.55091 -1.41587 0
-2.47593 -1.54326 0
-2.98607 -1.65741 0
-2.89829 -1.80652 0
-2.98607 -1.65741 0
-2.89829 -1.80652 0
-3.49739 -1.94121 0
-3.39458 -2.11586 0
-0.0848644 -0.0528964 0
-0.0820763 -0.0571268 0
-0.0887962 -0.0553471 0
-0.085879 -0.0597735 0
-0.0887962 -0.0553471 0
-0.085879 -0.0597735 0
-0.0934161 -0.0582267 0
-0.0903471 -0.0628834 0
-0.0934161 -0.0582267 0
-0.0903471 -0.0628834 0
-0.0988445 -0.0616102 0
-0.0955971 -0.0665375 0
-0.0988445 -0.0616102 0
-0.0955971 -0.0665375 0
-0.105223 -0.0655859 0
-0.101766 -0.0708311 0
-0.105223 -0.0655859 0
-0.101766 -0.0708311 0
-0.112717 -0.0702572 0
-0.109014 -0.0758761 0
-0.112717 -0.0702572 0
-0.109014 -0.0758761 0
-0.121523 -0.0757461 0
-0.117531 -0.0818039 0
-0.121523 -0.0757461 0
-0.117531 -0.0818039 0
-0.131871 -0.0821955 0
-0.127538 -0.0887692 0
-0.131871 -0.0821955 0
-0.127538 -0.0887692 0
-0.144028 -0.0897736 0
-0.139297 -0.0969533 0
-0.144028 -0.0897736 0
-0.139297 -0.0969533 0
-0.158314 -0.0986778 0
-0.153113 -0.10657 0
-0.158314 -0.0986778 0
-0.153113 -0.10657 0
-0.175099 -0.10914 0
-0.169347 -0.117869 0
-0.175099 -0.10914 0
-0.169347 -0.117869 0
-0.194822 -0.121434 0
-0.188422 -0.131145 0
-0.194822 -0.121434 0
-0.188422 -0.131145 0
-0.217997 -0.135878 0
-0.210835 -0.146745 0
-0.217997 -0.135878 0
-0.210835 -0.146745 0
-0.245227 -0.152851 0
-0.23717 -0.165075 0
-0.245227 -0.152851 0
-0.23717 -0.165075 0
-0.277222 -0.172794 0
-0.268114 -0.186613 0
-0.277222 -0.172794 0
-0.268114 -0.186613 0
-0.314816 -0.196226 0
-0.304474 -0.21192 0
-0.314816 -0.196226 0
-0.304474 -0.21192 0
-0.35899 -0.22376 0
-0.347196 -0.241655 0
-0.35899 -0.22376 0
-0.347196 -0.241655 0
-0.410893 -0.256112 0
-0.397394 -0.276595 0
-0.410893 -0.256112 0
-0.397394 -0.276595 0
-0.47188 -0.294125 0
-0.456377 -0.317648 0
-0.47188 -0.294125 0
-0.456377 -0.317648 0
-0.54354 -0.338791 0
-0.525683 -0.365886 0
-0.54354 -0.338791 0
-0.525683 -0.365886 0
-0.62774 -0.391273 0
-0.607116 -0.422566 0
-0.62774 -0.391273 0
-0.607116 -0.422566 0
-0.726675 -0.45294 0
-0.702801 -0.489164 0
-0.726675 -0.45294 0
-0.702801 -0.489164 0
-0.842923 -0.525398 0
-0.815231 -0.567417 0
-0.842923 -0.525398 0
-0.815231 -0.567417 0
-0.979516 -0.610537 0
-0.947335 -0.659365 0
-0.979516 -0.610537 0
-0.947335 -0.659365 0
-1.14001 -0.710575 0
-1.10256 -0.767403 0
-1.14001 -0.710575 0
-1.10256 -0.767403 0
-1.32859 -0.828119 0
-1.28495 -0.894348 0
-1.32859 -0.828119 0
-1.28495 -0.894348 0
-1.55018 -0.966234 0
-1.49925 -1.04351 0
-1.55018 -0.966234 0
-1.49925 -1.04351 0
-1.81054 -1.12852 0
-1.75106 -1.21877 0
-1.81054 -1.12852 0
-1.75106 -1.21877 0
-2.11647 -1.3192 0
-2.04693 -1.42471 0
-2.11647 -1.3192 0
-2.04693 -1.42471 0
-2.47593 -1.54326 0
-2.39458 -1.66668 0
-2.47593 -1.54326 0
-2.39458 -1.66668 0
-2.89829 -1.80652 0
-2.80308 -1.951 0
-2.89829 -1.80652 0
-2.80308 -1.951 0
-3.39458 -2.11586 0
-3.28305 -2.28507 0
-0.0820763 -0.0571268 0
-0.0790776 -0.0612106 0
-0.085879 -0.0597735 0
-0.0827413 -0.0640465 0
-0.085879 -0.0597735 0
-0.0827413 -0.0640465 0
-0.0903471 -0.0628834 0
-0.0870461 -0.0673787 0
-0.0903471 -0.0628834 0
-0.0870461 -0.0673787 0
-0.0955971 -0.0665375 0
-0.0921043 -0.0712941 0
-0.0955971 -0.0665375 0
-0.0921043 -0.0712941 0
-0.101766 -0.0708311 0
-0.0980477 -0.0758946 0
-0.101766 -0.0708311 0
-0.0980477 -0.0758946 0
-0.109014 -0.0758761 0
-0.105031 -0.0813002 0
-0.109014 -0.0758761 0
-0.105031 -0.0813002 0
-0.117531 -0.0818039 0
-0.113237 -0.0876518 0
-0.117531 -0.0818039 0
-0.113237 -0.0876518 0
-0.127538 -0.0887692 0
-0.122878 -0.0951149 0
-0.127538 -0.0887692 0
-0.122878 -0.0951149 0
-0.139297 -0.0969533 0
-0.134207 -0.103884 0
-0.139297 -0.0969533 0
-0.134207 -0.103884 0
-0.153113 -0.10657 0
-0.147519 -0.114188 0
-0.153113 -0.10657 0
-0.147519 -0.114188 0
-0.169347 -0.117869 0
-0.163159 -0.126295 0
-0.169347 -0.117869 0
-0.163159 -0.126295 0
-0.188422 -0.131145 0
-0.181537 -0.14052 0
-0.188422 -0.131145 0
-0.181537 -0.14052 0
-0.210835 -0.146745 0
-0.203132 -0.157236 0
-0.210835 -0.146745 0
-0.203132 -0.157236 0
-0.23717 -0.165075 0
-0.228505 -0.176876 0
-0.23717 -0.165075 0
-0.228505 -0.176876 0
-0.268114 -0.186613 0
-0.258318 -0.199953 0
-0.268114 -0.186613 0
-0.258318 -0.199953 0
-0.304474 -0.21192 0
-0.293349 -0.227069 0
-0.304474 -0.21192 0
-0.293349 -0.227069 0
-0.347196 -0.241655 0
-0.33451 -0.25893 0
-0.347196 -0.241655 0
-0.33451 -0.25893 0
-0.397394 -0.276595 0
-0.382875 -0.296367 0
-0.397394 -0.276595 0
-0.382875 -0.296367 0
-0.456377 -0.317648 0
-0.439703 -0.340356 0
-0.456377 -0.317648 0
-0.439703 -0.340356 0
-0.525683 -0.365886 0
-0.506476 -0.392042 0
-0.525683 -0.365886 0
-0.506476 -0.392042 0
-0.607116 -0.422566 0
-0.584935 -0.452773 0
-0.607116 -0.422566 0
-0.584935 -0.452773 0
-0.702801 -0.489164 0
-0.677123 -0.524132 0
-0.702801 -0.489164 0
-0.677123 -0.524132 0
-0.815231 -0.567417 0
-0.785445 -0.60798 0
-0.815231 -0.567417 0
-0.785445 -0.60798 0
-0.947335 -0.659365 0
-0.912723 -0.7065 0
-0.947335 -0.659365 0
-0.912723 -0.7065 0
-1.10256 -0.767403 0
-1.06227 -0.822262 0
-1.10256 -0.767403 0
-1.06227 -0.822262 0
-1.28495 -0.894348 0
-1.238 -0.958282 0
-1.28495 -0.894348 0
-1.238 -0.958282 0
-1.49925 -1.04351 0
-1.44447 -1.11811 0
-1.49925 -1.04351 0
-1.44447 -1.11811 0
-1.75106 -1.21877 0
-1.68708 -1.3059 0
-1.75106 -1.21877 0
-1.68708 -1.3059 0
-2.04693 -1.42471 0
-1.97214 -1.52655 0
-2.04693 -1.42471 0
-1.97214 -1.52655 0
-2.39458 -1.66668 0
-2.3071 -1.78582 0
-2.39458 -1.66668 0
-2.3071 -1.78582 0
-2.80308 -1.951 0
-2.70066 -2.09047 0
-2.80308 -1.951 0
-2.70066 -2.09047 0
-3.28305 -2.28507 0
-3.1631 -2.44842 0
-0.0790776 -0.0612106 0
-0.0758758 -0.0651372 0
-0.0827413 -0.0640465 0
-0.0793912 -0.0681551 0
-0.0827413 -0.0640465 0
-0.0793912 -0.0681551 0
-0.0870461 -0.0673787 0
-0.0835217 -0.0717011 0
-0.0870461 -0.0673787 0
-0.0835217 -0.0717011 0
-0.0921043 -0.0712941 0
-0.0883751 -0.0758676 0
-0.0921043 -0.0712941 0
-0.0883751 -0.0758676 0
-0.0980477 -0.0758946 0
-0.0940779 -0.0807632 0
-0.0980477 -0.0758946 0
-0.0940779 -0.0807632 0
-0.105031 -0.0813002 0
-0.100779 -0.0865156 0
-0.105031 -0.0813002 0
-0.100779 -0.0865156 0
-0.113237 -0.0876518 0
-0.108652 -0.0932746 0
-0.113237 -0.0876518 0
-0.108652 -0.0932746 0
-0.122878 -0.0951149 0
-0.117903 -0.101217 0
-0.122878 -0.0951149 0
-0.117903 -0.101217 0
-0.134207 -0.103884 0
-0.128773 -0.110548 0
-0.134207 -0.103884 0
-0.128773 -0.110548 0
-0.147519 -0.114188 0
-0.141546 -0.121513 0
-0.147519 -0.114188 0
-0.141546 -0.121513 0
-0.163159 -0.126295 0
-0.156553 -0.134397 0
-0.163159 -0.126295 0
-0.156553 -0.134397 0
-0.181537 -0.14052 0
-0.174187 -0.149535 0
-0.181537 -0.14052 0
-0.174187 -0.149535 0
-0.203132 -0.157236 0
-0.194907 -0.167322 0
-0.203132 -0.157236 0
-0.194907 -0.167322 0
-0.228505 -0.176876 0
-0.219253 -0.188222 0
-0.228505 -0.176876 0
-0.219253 -0.188222 0
-0.258318 -0.199953 0
-0.247859 -0.21278 0
-0.258318 -0.199953 0
-0.247859 -0.21278 0
-0.293349 -0.227069 0
-0.281472 -0.241636 0
-0.293349 -0.227069 0
-0.281472 -0.241636 0
-0.33451 -0.25893 0
-0.320966 -0.275541 0
-0.33451 -0.25893 0
-0.320966 -0.275541 0
-0.382875 -0.296367 0
-0.367373 -0.315379 0
-0.382875 -0.296367 0
-0.367373 -0.315379 0
-0.439703 -0.340356 0
-0.4219 -0.362189 0
-0.439703 -0.340356 0
-0.4219 -0.362189 0
-0.506476 -0.392042 0
-0.48597 -0.417191 0
-0.506476 -0.392042 0
-0.48597 -0.417191 0
-0.584935 -0.452773 0
-0.561251 -0.481818 0
-0.584935 -0.452773 0
-0.561251 -0.481818 0
-0.677123 -0.524132 0
-0.649707 -0.557756 0
-0.677123 -0.524132 0
-0.649707 -0.557756 0
-0.785445 -0.60798 0
-0.753643 -0.646982 0
-0.785445 -0.60798 0
-0.753643 -0.646982 0
-0.912723 -0.7065 0
-0.875768 -0.751822 0
-0.912723 -0.7065 0
-0.875768 -0.751822 0
-1.06227 -0.822262 0
-1.01926 -0.87501 0
-1.06227 -0.822262 0
-1.01926 -0.87501 0
-1.238 -0.958282 0
-1.18787 -1.01976 0
-1.238 -0.958282 0
-1.18787 -1.01976 0
-1.44447 -1.11811 0
-1.38599 -1.18983 0
-1.44447 -1.11811 0
-1.38599 -1.18983 0
-1.68708 -1.3059 0
-1.61877 -1.38967 0
-1.68708 -1.3059 0
-1.61877 -1.38967 0
-1.97214 -1.52655 0
-1.89229 -1.62448 0
-1.97214 -1.52655 0
-1.89229 -1.62448 0
-2.3071 -1.78582 0
-2.21368 -1.90038 0
-2.3071 -1.78582 0
-2.21368 -1.90038 0
-2.70066 -2.09047 0
-2.59132 -2.22457 0
-2.70066 -2.09047 0
-2.59132 -2.22457 0
-3.1631 -2.44842 0
-3.03503 -2.60549 0
-0.0758758 -0.0651372 0
-0.0724793 -0.0688967 0
-0.0793912 -0.0681551 0
-0.0758373 -0.0720887 0
-0.0793912 -0.0681551 0
-0.0758373 -0.0720887 0
-0.0835217 -0.0717011 0
-0.0797829 -0.0758393 0
-0.0835217 -0.0717011 0
-0.0797829 -0.0758393 0
-0.0883751 -0.0758676 0
-0.0844191 -0.0802463 0
-0.0883751 -0.0758676 0
-0.0844191 -0.0802463 0
-0.0940779 -0.0807632 0
-0.0898665 -0.0854245 0
-0.0940779 -0.0807632 0
-0.0898665 -0.0854245 0
-0.100779 -0.0865156 0
-0.0962673 -0.0915089 0
-0.100779 -0.0865156 0
-0.0962673 -0.0915089 0
-0.108652 -0.0932746 0
-0.103788 -0.0986581 0
-0.108652 -0.0932746 0
-0.103788 -0.0986581 0
-0.117903 -0.101217 0
-0.112625 -0.107058 0
-0.117903 -0.101217 0
-0.112625 -0.107058 0
-0.128773 -0.110548 0
-0.123009 -0.116929 0
-0.128773 -0.110548 0
-0.123009 -0.116929 0
-0.141546 -0.121513 0
-0.13521 -0.128526 0
-0.141546 -0.121513 0
-0.13521 -0.128526 0
-0.156553 -0.134397 0
-0.149545 -0.142153 0
-0.156553 -0.134397 0
-0.149545 -0.142153 0
-0.174187 -0.149535 0
-0.16639 -0.158165 0
-0.174187 -0.149535 0
-0.16639 -0.158165 0
-0.194907 -0.167322 0
-0.186182 -0.176979 0
-0.194907 -0.167322 0
-0.186182 -0.176979 0
-0.219253 -0.188222 0
-0.209438 -0.199086 0
-0.219253 -0.188222 0
-0.209438 -0.199086 0
-0.247859 -0.21278 0
-0.236764 -0.225061 0
-0.247859 -0.21278 0
-0.236764 -0.225061 0
-0.281472 -0.241636 0
-0.268872 -0.255582 0
-0.281472 -0.241636 0
-0.268872 -0.255582 0
-0.320966 -0.275541 0
-0.306599 -0.291444 0
-0.320966 -0.275541 0
-0.306599 -0.291444 0
-0.367373 -0.315379 0
-0.350927 -0.333581 0
-0.367373 -0.315379 0
-0.350927 -0.333581 0
-0.4219 -0.362189 0
-0.403014 -0.383093 0
-0.4219 -0.362189 0
-0.403014 -0.383093 0
-0.48597 -0.417191 0
-0.464215 -0.44127 0
-0.48597 -0.417191 0
-0.464215 -0.44127 0
-0.561251 -0.481818 0
-0.536127 -0.509627 0
-0.561251 -0.481818 0
-0.536127 -0.509627 0
-0.649707 -0.557756 0
-0.620624 -0.589947 0
-0.649707 -0.557756 0
-0.620624 -0.589947 0
-0.753643 -0.646982 0
-0.719907 -0.684323 0
-0.753643 -0.646982 0
-0.719907 -0.684323 0
-0.875768 -0.751822 0
-0.836565 -0.795214 0
-0.875768 -0.751822 0
-0.836565 -0.795214 0
-1.01926 -0.87501 0
-0.973638 -0.925512 0
-1.01926 -0.87501 0
-0.973638 -0.925512 0
-1.18787 -1.01976 0
-1.1347 -1.07861 0
-1.18787 -1.01976 0
-1.1347 -1.07861 0
-1.38599 -1.18983 0
-1.32394 -1.2585 0
-1.38599 -1.18983 0
-1.32394 -1.2585 0
-1.61877 -1.38967 0
-1.54631 -1.46988 0
-1.61877 -1.38967 0
-1.54631 -1.46988 0
-1.89229 -1.62448 0
-1.80759 -1.71824 0
-1.89229 -1.62448 0
-1.80759 -1.71824 0
-2.21368 -1.90038 0
-2.11459 -2.01007 0
-2.21368 -1.90038 0
-2.11459 -2.01007 0
-2.59132 -2.22457 0
-2.47532 -2.35296 0
-2.59132 -2.22457 0
-2.47532 -2.35296 0
-3.03503 -2.60549 0
-2.89917 -2.75587 0
-0.0724793 -0.0688967 0
-0.0688967 -0.0724793 0
-0.0758373 -0.0720887 0
-0.0720887 -0.0758373 0
-0.0758373 -0.0720887 0
-0.0720887 -0.0758373 0
-0.0797829 -0.0758393 0
-0.0758393 -0.0797829 0
-0.0797829 -0.0758393 0
-0.0758393 -0.0797829 0
-0.0844191 -0.0802463 0
-0.0802463 -0.0844191 0
-0.0844191 -0.0802463 0
-0.0802463 -0.0844191 0
-0.0898665 -0.0854245 0
-0.0854245 -0.0898665 0
-0.0898665 -0.0854245 0
-0.0854245 -0.0898665 0
-0.0962673 -0.0915089 0
-0.0915089 -0.0962673 0
-0.0962673 -0.0915089 0
-0.0915089 -0.0962673 0
-0.103788 -0.0986581 0
-0.0986581 -0.103788 0
-0.103788 -0.0986581 0
-0.0986581 -0.103788 0
-0.112625 -0.107058 0
-0.107058 -0.112625 0
-0.112625 -0.107058 0
-0.107058 -0.112625 0
-0.123009 -0.116929 0
-0.116929 -0.123009 0
-0.123009 -0.116929 0
-0.116929 -0.123009 0
-0.13521 -0.128526 0
-0.128526 -0.13521 0
-0.13521 -0.128526 0
-0.128526 -0.13521 0
-0.149545 -0.142153 0
-0.142153 -0.149545 0
-0.149545 -0.142153 0
-0.142153 -0.149545 0
-0.16639 -0.158165 0
-0.158165 -0.16639 0
-0.16639 -0.158165 0
-0.158165 -0.16639 0
-0.186182 -0.176979 0
-0.176979 -0.186182 0
-0.186182 -0.176979 0
-0.176979 -0.186182 0
-0.209438 -0.199086 0
-0.199086 -0.209438 0
-0.209438 -0.199086 0
-0.199086 -0.209438 0
-0.236764 -0.225061 0
-0.225061 -0.236764 0
-0.236764 -0.225061 0
-0.225061 -0.236764 0
-0.268872 -0.255582 0
-0.255582 -0.268872 0
-0.268872 -0.255582 0
-0.255582 -0.268872 0
-0.306599 -0.291444 0
-0.291444 -0.306599 0
-0.306599 -0.291444 0
-0.291444 -0.306599 0
-0.350927 -0.333581 0
-0.333581 -0.350927 0
-0.350927 -0.333581 0
-0.333581 -0.350927 0
-0.403014 -0.383093 0
-0.383093 -0.403014 0
-0.403014 -0.383093 0
-0.383093 -0.403014 0
-0.464215 -0.44127 0
-0.44127 -0.464215 0
-0.464215 -0.44127 0
-0.44127 -0.464215 0
-0.536127 -0.509627 0
-0.509627 -0.536127 0
-0.536127 -0.509627 0
-0.509627 -0.536127 0
-0.620624 -0.589947 0
-0.589947 -0.620624 0
-0.620624 -0.589947 0
-0.589947 -0.620624 0
-0.719907 -0.684323 0
-0.684323 -0.719907 0
-0.719907 -0.684323 0
-0.684323 -0.719907 0
-0.836565 -0.795214 0
-0.795214 -0.836565 0
-0.836565 -0.795214 0
-0.795214 -0.836565 0
-0.973638 -0.925512 0
-0.925512 -0.973638 0
-0.973638 -0.925512 0
-0.925512 -0.973638 0
-1.1347 -1.07861 0
-1.07861 -1.1347 0
-1.1347 -1.07861 0
-1.07861 -1.1347 0
-1.32394 -1.2585 0
-1.2585 -1.32394 0
-1.32394 -1.2585 0
-1.2585 -1.32394 0
-1.54631 -1.46988 0
-1.46988 -1.54631 0
-1.54631 -1.46988 0
-1.46988 -1.54631 0
-1.80759 -1.71824 0
-1.71824 -1.80759 0
-1.80759 -1.71824 0
-1.71824 -1.80759 0
-2.11459 -2.01007 0
-2.01007 -2.11459 0
-2.11459 -2.01007 0
-2.01007 -2.11459 0
-2.47532 -2.35296 0
-2.35296 -2.47532 0
-2.47532 -2.35296 0
-2.35296 -2.47532 0
-2.89917 -2.75587 0
-2.75587 -2.89917 0
-0.0688967 -0.0724793 0
-0.0651372 -0.0758758 0
-0.0720887 -0.0758373 0
-0.0681551 -0.0793912 0
-0.0720887 -0.0758373 0
-0.0681551 -0.0793912 0
-0.0758393 -0.0797829 0
-0.0717011 -0.0835217 0
-0.0758393 -0.0797829 0
-0.0717011 -0.0835217 0
-0.0802463 -0.0844191 0
-0.0758676 -0.0883751 0
-0.0802463 -0.0844191 0
-0.0758676 -0.0883751 0
-0.0854245 -0.0898665 0
-0.0807632 -0.0940779 0
-0.0854245 -0.0898665 0
-0.0807632 -0.0940779 0
-0.0915089 -0.0962673 0
-0.0865156 -0.100779 0
-0.0915089 -0.0962673 0
-0.0865156 -0.100779 0
-0.0986581 -0.103788 0
-0.0932746 -0.108652 0
-0.0986581 -0.103788 0
-0.0932746 -0.108652 0
-0.107058 -0.112625 0
-0.101217 -0.117903 0
-0.107058 -0.112625 0
-0.101217 -0.117903 0
-0.116929 -0.123009 0
-0.110548 -0.128773 0
-0.116929 -0.123009 0
-0.110548 -0.128773 0
-0.128526 -0.13521 0
-0.121513 -0.141546 0
-0.128526 -0.13521 0
-0.121513 -0.141546 0
-0.142153 -0.149545 0
-0.134397 -0.156553 0
-0.142153 -0.149545 0
-0.134397 -0.156553 0
-0.158165 -0.16639 0
-0.149535 -0.174187 0
-0.158165 -0.16639 0
-0.149535 -0.174187 0
-0.176979 -0.186182 0
-0.167322 -0.194907 0
-0.176979 -0.186182 0
-0.167322 -0.194907 0
-0.199086 -0.209438 0
-0.188222 -0.219253 0
-0.199086 -0.209438 0
-0.188222 -0.219253 0
-0.225061 -0.236764 0
-0.21278 -0.247859 0
-0.225061 -0.236764 0
-0.21278 -0.247859 0
-0.255582 -0.268872 0
-0.241636 -0.281472 0
-0.255582 -0.268872 0
-0.241636 -0.281472 0
-0.291444 -0.306599 0
-0.275541 -0.320966 0
-0.291444 -0.306599 0
-0.275541 -0.320966 0
-0.333581 -0.350927 0
-0.315379 -0.367373 0
-0.333581 -0.350927 0
-0.315379 -0.367373 0
-0.383093 -0.403014 0
-0.362189 -0.4219 0
-0.383093 -0.403014 0
-0.362189 -0.4219 0
-0.44127 -0.464215 0
-0.417191 -0.48597 0
-0.44127 -0.464215 0
-0.417191 -0.48597 0
-0.509627 -0.536127 0
-0.481818 -0.561251 0
-0.509627 -0.536127 0
-0.481818 -0.561251 0
-0.589947 -0.620624 0
-0.557756 -0.649707 0
-0.589947 -0.620624 0
-0.557756 -0.649707 0
-0.684323 -0.719907 0
-0.646982 -0.753643 0
-0.684323 -0.719907 0
-0.646982 -0.753643 0
-0.795214 -0.836565 0
-0.751822 -0.875768 0
-0.795214 -0.836565 0
-0.751822 -0.875768 0
-0.925512 -0.973638 0
-0.87501 -1.01926 0
-0.925512 -0.973638 0
-0.87501 -1.01926 0
-1.07861 -1.1347 0
-1.01976 -1.18787 0
-1.07861 -1.1347 0
-1.01976 -1.18787 0
-1.2585 -1.32394 0
-1.18983 -1.38599 0
-1.2585 -1.32394 0
-1.18983 -1.38599 0
-1.46988 -1.54631 0
-1.38967 -1.61877 0
-1.46988 -1.54631 0
-1.38967 -1.61877 0
-1.71824 -1.80759 0
-1.62448 -1.89229 0
-1.71824 -1.80759 0
-1.62448 -1.89229 0
-2.01007 -2.11459 0
-1.90038 -2.21368 0
-2.01007 -2.11459 0
-1.90038 -2.21368 0
-2.35296 -2.47532 0
-2.22457 -2.59132 0
-2.35296 -2.47532 0
-2.22457 -2.59132 0
-2.75587 -2.89917 0
-2.60549 -3.03503 0
-0.0651372 -0.0758758 0
-0.0612106 -0.0790776 0
-0.0681551 -0.0793912 0
-0.0640465 -0.0827413 0
-0.0681551 -0.0793912 0
-0.0640465 -0.0827413 0
-0.0717011 -0.0835217 0
-0.0673787 -0.0870461 0
-0.0717011 -0.0835217 0
-0.0673787 -0.0870461 0
-0.0758676 -0.0883751 0
-0.0712941 -0.0921043 0
-0.0758676 -0.0883751 0
-0.0712941 -0.0921043 0
-0.0807632 -0.0940779 0
-0.0758946 -0.0980477 0
-0.0807632 -0.0940779 0
-0.0758946 -0.0980477 0
-0.0865156 -0.100779 0
-0.0813002 -0.105031 0
-0.0865156 -0.100779 0
-0.0813002 -0.105031 0
-0.0932746 -0.108652 0
-0.0876518 -0.113237 0
-0.0932746 -0.108652 0
-0.0876518 -0.113237 0
-0.101217 -0.117903 0
-0.0951149 -0.122878 0
-0.101217 -0.117903 0
-0.0951149 -0.122878 0
-0.110548 -0.128773 0
-0.103884 -0.134207 0
-0.110548 -0.128773 0
-0.103884 -0.134207 0
-0.121513 -0.141546 0
-0.114188 -0.147519 0
-0.121513 -0.141546 0
-0.114188 -0.147519 0
-0.134397 -0.156553 0
-0.126295 -0.163159 0
-0.134397 -0.156553 0
-0.126295 -0.163159 0
-0.149535 -0.174187 0
-0.14052 -0.181537 0
-0.149535 -0.174187 0
-0.14052 -0.181537 0
-0.167322 -0.194907 0
-0.157236 -0.203132 0
-0.167322 -0.194907 0
-0.157236 -0.203132 0
-0.188222 -0.219253 0
-0.176876 -0.228505 0
-0.188222 -0.219253 0
-0.176876 -0.228505 0
-0.21278 -0.247859 0
-0.199953 -0.258318 0
-0.21278 -0.247859 0
-0.199953 -0.258318 0
-0.241636 -0.281472 0
-0.227069 -0.293349 0
-0.241636 -0.281472 0
-0.227069 -0.293349 0
-0.275541 -0.320966 0
-0.25893 -0.33451 0
-0.275541 -0.320966 0
-0.25893 -0.33451 0
-0.315379 -0.367373 0
-0.296367 -0.382875 0
-0.315379 -0.367373 0
-0.296367 -0.382875 0
-0.362189 -0.4219 0
-0.340355 -0.439703 0
-0.362189 -0.4219 0
-0.340355 -0.439703 0
-0.417191 -0.48597 0
-0.392042 -0.506476 0
-0.417191 -0.48597 0
-0.392042 -0.506476 0
-0.481818 -0.561251 0
-0.452773 -0.584935 0
-0.481818 -0.561251 0
-0.452773 -0.584935 0
-0.557756 -0.649707 0
-0.524132 -0.677123 0
-0.557756 -0.649707 0
-0.524132 -0.677123 0
-0.646982 -0.753643 0
-0.60798 -0.785445 0
-0.646982 -0.753643 0
-0.60798 -0.785445 0
-0.751822 -0.875768 0
-0.7065 -0.912723 0
-0.751822 -0.875768 0
-0.7065 -0.912723 0
-0.87501 -1.01926 0
-0.822262 -1.06227 0
-0.87501 -1.01926 0
-0.822262 -1.06227 0
-1.01976 -1.18787 0
-0.958282 -1.238 0
-1.01976 -1.18787 0
-0.958282 -1.238 0
-1.18983 -1.38599 0
-1.11811 -1.44447 0
-1.18983 -1.38599 0
-1.11811 -1.44447 0
-1.38967 -1.61877 0
-1.3059 -1.68708 0
-1.38967 -1.61877 0
-1.3059 -1.68708 0
-1.62448 -1.89229 0
-1.52655 -1.97214 0
-1.62448 -1.89229 0
-1.52655 -1.97214 0
-1.90038 -2.21368 0
-1.78582 -2.3071 0
-1.90038 -2.21368 0
-1.78582 -2.3071 0
-2.22457 -2.59132 0
-2.09047 -2.70066 0
-2.22457 -2.59132 0
-2.09047 -2.70066 0
-2.60549 -3.03503 0
-2.44842 -3.1631 0
-0.0612106 -0.0790776 0
-0.0571268 -0.0820763 0
-0.0640465 -0.0827413 0
-0.0597735 -0.085879 0
-0.0640465 -0.0827413 0
-0.0597735 -0.085879 0
-0.0673787 -0.0870461 0
-0.0628834 -0.0903471 0
-0.0673787 -0.0870461 0
-0.0628834 -0.0903471 0
-0.0712941 -0.0921043 0
-0.0665375 -0.0955971 0
-0.0712941 -0.0921043 0
-0.0665375 -0.0955971 0
-0.0758946 -0.0980477 0
-0.0708311 -0.101766 0
-0.0758946 -0.0980477 0
-0.0708311 -0.101766 0
-0.0813002 -0.105031 0
-0.0758761 -0.109014 0
-0.0813002 -0.105031 0
-0.0758761 -0.109014 0
-0.0876518 -0.113237 0
-0.0818039 -0.117531 0
-0.0876518 -0.113237 0
-0.0818039 -0.117531 0
-0.0951149 -0.122878 0
-0.0887692 -0.127538 0
-0.0951149 -0.122878 0
-0.0887692 -0.127538 0
-0.103884 -0.134207 0
-0.0969533 -0.139297 0
-0.103884 -0.134207 0
-0.0969533 -0.139297 0
-0.114188 -0.147519 0
-0.10657 -0.153113 0
-0.114188 -0.147519 0
-0.10657 -0.153113 0
-0.126295 -0.163159 0
-0.117869 -0.169347 0
-0.126295 -0.163159 0
-0.117869 -0.169347 0
-0.14052 -0.181537 0
-0.131145 -0.188422 0
-0.14052 -0.181537 0
-0.131145 -0.188422 0
-0.157236 -0.203132 0
-0.146745 -0.210835 0
-0.157236 -0.203132 0
-0.146745 -0.210835 0
-0.176876 -0.228505 0
-0.165075 -0.23717 0
-0.176876 -0.228505 0
-0.165075 -0.23717 0
-0.199953 -0.258318 0
-0.186613 -0.268114 0
-0.199953 -0.258318 0
-0.186613 -0.268114 0
-0.227069 -0.293349 0
-0.21192 -0.304474 0
-0.227069 -0.293349 0
-0.21192 -0.304474 0
-0.25893 -0.33451 0
-0.241655 -0.347196 0
-0.25893 -0.33451 0
-0.241655 -0.347196 0
-0.296367 -0.382875 0
-0.276595 -0.397394 0
-0.296367 -0.382875 0
-0.276595 -0.397394 0
-0.340355 -0.439703 0
-0.317648 -0.456377 0
-0.340355 -0.439703 0
-0.317648 -0.456377 0
-0.392042 -0.506476 0
-0.365886 -0.525683 0
-0.392042 -0.506476 0
-0.365886 -0.525683 0
-0.452773 -0.584935 0
-0.422566 -0.607116 0
-0.452773 -0.584935 0
-0.422566 -0.607116 0
-0.524132 -0.677123 0
-0.489164 -0.702801 0
-0.524132 -0.677123 0
-0.489164 -0.702801 0
-0.60798 -0.785445 0
-0.567417 -0.815231 0
-0.60798 -0.785445 0
-0.567417 -0.815231 0
-0.7065 -0.912723 0
-0.659365 -0.947335 0
-0.7065 -0.912723 0
-0.659365 -0.947335 0
-0.822262 -1.06227 0
-0.767403 -1.10256 0
-0.822262 -1.06227 0
-0.767403 -1.10256 0
-0.958282 -1.238 0
-0.894348 -1.28495 0
-0.958282 -1.238 0
-0.894348 -1.28495 0
-1.11811 -1.44447 0
-1.04351 -1.49925 0
-1.11811 -1.44447 0
-1.04351 -1.49925 0
-1.3059 -1.68708 0
-1.21877 -1.75106 0
-1.3059 -1.68708 0
-1.21877 -1.75106 0
-1.52655 -1.97214 0
-1.42471 -2.04693 0
-1.52655 -1.97214 0
-1.42471 -2.04693 0
-1.78582 -2.3071 0
-1.66668 -2.39458 0
-1.78582 -2.3071 0
-1.66668 -2.39458 0
-2.09047 -2.70066 0
-1.951 -2.80308 0
-2.09047 -2.70066 0
-1.951 -2.80308 0
-2.44842 -3.1631 0
-2.28507 -3.28305 0
-0.0571268 -0.0820763 0
-0.0528964 -0.0848644 0
-0.0597735 -0.085879 0
-0.0553471 -0.0887962 0
-0.0597735 -0.085879 0
-0.0553471 -0.0887962 0
-0.0628834 -0.0903471 0
-0.0582267 -0.0934161 0
-0.0628834 -0.0903471 0
-0.0582267 -0.0934161 0
-0.0665375 -0.0955971 0
-0.0616102 -0.0988445 0
-0.0665375 -0.0955971 0
-0.0616102 -0.0988445 0
-0.0708311 -0.101766 0
-0.0655859 -0.105223 0
-0.0708311 -0.101766 0
-0.0655859 -0.105223 0
-0.0758761 -0.109014 0
-0.0702572 -0.112717 0
-0.0758761 -0.109014 0
-0.0702572 -0.112717 0
-0.0818039 -0.117531 0
-0.0757461 -0.121523 0
-0.0818039 -0.117531 0
-0.0757461 -0.121523 0
-0.0887692 -0.127538 0
-0.0821955 -0.131871 0
-0.0887692 -0.127538 0
-0.0821955 -0.131871 0
-0.0969533 -0.139297 0
-0.0897736 -0.144028 0
-0.0969533 -0.139297 0
-0.0897736 -0.144028 0
-0.10657 -0.153113 0
-0.0986778 -0.158314 0
-0.10657 -0.153113 0
-0.0986778 -0.158314 0
-0.117869 -0.169347 0
-0.10914 -0.175099 0
-0.117869 -0.169347 0
-0.10914 -0.175099 0
-0.131145 -0.188422 0
-0.121434 -0.194822 0
-0.131145 -0.188422 0
-0.121434 -0.194822 0
-0.146745 -0.210835 0
-0.135878 -0.217997 0
-0.146745 -0.210835 0
-0.135878 -0.217997 0
-0.165075 -0.23717 0
-0.152851 -0.245227 0
-0.165075 -0.23717 0
-0.152851 -0.245227 0
-0.186613 -0.268114 0
-0.172794 -0.277222 0
-0.186613 -0.268114 0
-0.172794 -0.277222 0
-0.21192 -0.304474 0
-0.196226 -0.314816 0
-0.21192 -0.304474 0
-0.196226 -0.314816 0
-0.241655 -0.347196 0
-0.22376 -0.35899 0
-0.241655 -0.347196 0
-0.22376 -0.35899 0
-0.276595 -0.397394 0
-0.256112 -0.410893 0
-0.276595 -0.397394 0
-0.256112 -0.410893 0
-0.317648 -0.456377 0
-0.294125 -0.47188 0
-0.317648 -0.456377 0
-0.294125 -0.47188 0
-0.365886 -0.525683 0
-0.338791 -0.54354 0
-0.365886 -0.525683 0
-0.338791 -0.54354 0
-0.422566 -0.607116 0
-0.391273 -0.62774 0
-0.422566 -0.607116 0
-0.391273 -0.62774 0
-0.489164 -0.702801 0
-0.45294 -0.726675 0
-0.489164 -0.702801 0
-0.45294 -0.726675 0
-0.567417 -0.815231 0
-0.525398 -0.842924 0
-0.567417 -0.815231 0
-0.525398 -0.842924 0
-0.659365 -0.947335 0
-0.610537 -0.979516 0
-0.659365 -0.947335 0
-0.610537 -0.979516 0
-0.767403 -1.10256 0
-0.710575 -1.14001 0
-0.767403 -1.10256 0
-0.710575 -1.14001 0
-0.894348 -1.28495 0
-0.828119 -1.32859 0
-0.894348 -1.28495 0
-0.828119 -1.32859 0
-1.04351 -1.49925 0
-0.966234 -1.55018 0
-1.04351 -1.49925 0
-0.966234 -1.55018 0
-1.21877 -1.75106 0
-1.12852 -1.81054 0
-1.21877 -1.75106 0
-1.12852 -1.81054 0
-1.42471 -2.04693 0
-1.3192 -2.11647 0
-1.42471 -2.04693 0
-1.3192 -2.11647 0
-1.66668 -2.39458 0
-1.54326 -2.47593 0
-1.66668 -2.39458 0
-1.54326 -2.47593 0
-1.951 -2.80308 0
-1.80652 -2.89829 0
-1.951 -2.80308 0
-1.80652 -2.89829 0
-2.28507 -3.28305 0
-2.11586 -3.39458 0
-0.0528964 -0.0848644 0
-0.0485302 -0.0874347 0
-0.0553471 -0.0887962 0
-0.0507786 -0.0914856 0
-0.0553471 -0.0887962 0
-0.0507786 -0.0914856 0
-0.0582267 -0.0934161 0
-0.0534205 -0.0962454 0
-0.0582267 -0.0934161 0
-0.0534205 -0.0962454 0
-0.0616102 -0.0988445 0
-0.0565248 -0.101838 0
-0.0616102 -0.0988445 0
-0.0565248 -0.101838 0
-0.0655859 -0.105223 0
-0.0601722 -0.10841 0
-0.0655859 -0.105223 0
-0.0601722 -0.10841 0
-0.0702572 -0.112717 0
-0.064458 -0.116131 0
-0.0702572 -0.112717 0
-0.064458 -0.116131 0
-0.0757461 -0.121523 0
-0.0694938 -0.125204 0
-0.0757461 -0.121523 0
-0.0694938 -0.125204 0
-0.0821955 -0.131871 0
-0.0754109 -0.135864 0
-0.0821955 -0.131871 0
-0.0754109 -0.135864 0
-0.0897736 -0.144028 0
-0.0823634 -0.14839 0
-0.0897736 -0.144028 0
-0.0823634 -0.14839 0
-0.0986778 -0.158314 0
-0.0905327 -0.163109 0
-0.0986778 -0.158314 0
-0.0905327 -0.163109 0
-0.10914 -0.175099 0
-0.100132 -0.180402 0
-0.10914 -0.175099 0
-0.100132 -0.180402 0
-0.121434 -0.194822 0
-0.11141 -0.200723 0
-0.121434 -0.194822 0
-0.11141 -0.200723 0
-0.135878 -0.217997 0
-0.124663 -0.224599 0
-0.135878 -0.217997 0
-0.124663 -0.224599 0
-0.152851 -0.245227 0
-0.140234 -0.252654 0
-0.152851 -0.245227 0
-0.140234 -0.252654 0
-0.172794 -0.277222 0
-0.158531 -0.285618 0
-0.172794 -0.277222 0
-0.158531 -0.285618 0
-0.196226 -0.314816 0
-0.180029 -0.324351 0
-0.196226 -0.314816 0
-0.180029 -0.324351 0
-0.22376 -0.35899 0
-0.20529 -0.369862 0
-0.22376 -0.35899 0
-0.20529 -0.369862 0
-0.256112 -0.410893 0
-0.234972 -0.423338 0
-0.256112 -0.410893 0
-0.234972 -0.423338 0
-0.294125 -0.47188 0
-0.269847 -0.486172 0
-0.294125 -0.47188 0
-0.269847 -0.486172 0
-0.338791 -0.54354 0
-0.310826 -0.560002 0
-0.338791 -0.54354 0
-0.310826 -0.560002 0
-0.391273 -0.62774 0
-0.358977 -0.646752 0
-0.391273 -0.62774 0
-0.358977 -0.646752 0
-0.45294 -0.726675 0
-0.415553 -0.748683 0
-0.45294 -0.726675 0
-0.415553 -0.748683 0
-0.525398 -0.842924 0
-0.482031 -0.868453 0
-0.525398 -0.842924 0
-0.482031 -0.868453 0
-0.610537 -0.979516 0
-0.560141 -1.00918 0
-0.610537 -0.979516 0
-0.560141 -1.00918 0
-0.710575 -1.14001 0
-0.651922 -1.17454 0
-0.710575 -1.14001 0
-0.651922 -1.17454 0
-0.828119 -1.32859 0
-0.759764 -1.36883 0
-0.828119 -1.32859 0
-0.759764 -1.36883 0
-0.966234 -1.55018 0
-0.886478 -1.59713 0
-0.966234 -1.55018 0
-0.886478 -1.59713 0
-1.12852 -1.81054 0
-1.03537 -1.86537 0
-1.12852 -1.81054 0
-1.03537 -1.86537 0
-1.3192 -2.11647 0
-1.21031 -2.18057 0
-1.3192 -2.11647 0
-1.21031 -2.18057 0
-1.54326 -2.47593 0
-1.41587 -2.55091 0
-1.54326 -2.47593 0
-1.41587 -2.55091 0
-1.80652 -2.89829 0
-1.65741 -2.98607 0
-1.80652 -2.89829 0
-1.65741 -2.98607 0
-2.11586 -3.39458 0
-1.94121 -3.49739 0
-0.0485302 -0.0874347 0
-0.0440394 -0.0897805 0
-0.0507786 -0.0914856 0
-0.0460798 -0.09394 0
-0.0507786 -0.0914856 0
-0.0460798 -0.09394 0
-0.0534205 -0.0962454 0
-0.0484772 -0.0988275 0
-0.0534205 -0.0962454 0
-0.0484772 -0.0988275 0
-0.0565248 -0.101838 0
-0.0512942 -0.10457 0
-0.0565248 -0.101838 0
-0.0512942 -0.10457 0
-0.0601722 -0.10841 0
-0.0546042 -0.111318 0
-0.0601722 -0.10841 0
-0.0546042 -0.111318 0
-0.064458 -0.116131 0
-0.0584934 -0.119247 0
-0.064458 -0.116131 0
-0.0584934 -0.119247 0
-0.0694938 -0.125204 0
-0.0630632 -0.128563 0
-0.0694938 -0.125204 0
-0.0630632 -0.128563 0
-0.0754109 -0.135864 0
-0.0684327 -0.13951 0
-0.0754109 -0.135864 0
-0.0684327 -0.13951 0
-0.0823634 -0.14839 0
-0.0747419 -0.152372 0
-0.0823634 -0.14839 0
-0.0747419 -0.152372 0
-0.0905327 -0.163109 0
-0.0821552 -0.167485 0
-0.0905327 -0.163109 0
-0.0821552 -0.167485 0
-0.100132 -0.180402 0
-0.0908658 -0.185243 0
-0.100132 -0.180402 0
-0.0908658 -0.185243 0
-0.11141 -0.200723 0
-0.101101 -0.206108 0
-0.11141 -0.200723 0
-0.101101 -0.206108 0
-0.124663 -0.224599 0
-0.113127 -0.230625 0
-0.124663 -0.224599 0
-0.113127 -0.230625 0
-0.140234 -0.252654 0
-0.127258 -0.259432 0
-0.140234 -0.252654 0
-0.127258 -0.259432 0
-0.158531 -0.285618 0
-0.143861 -0.293281 0
-0.158531 -0.285618 0
-0.143861 -0.293281 0
-0.180029 -0.324351 0
-0.16337 -0.333053 0
-0.180029 -0.324351 0
-0.16337 -0.333053 0
-0.20529 -0.369862 0
-0.186294 -0.379785 0
-0.20529 -0.369862 0
-0.186294 -0.379785 0
-0.234972 -0.423338 0
-0.213228 -0.434696 0
-0.234972 -0.423338 0
-0.213228 -0.434696 0
-0.269847 -0.486172 0
-0.244877 -0.499215 0
-0.269847 -0.486172 0
-0.244877 -0.499215 0
-0.310826 -0.560002 0
-0.282064 -0.575026 0
-0.310826 -0.560002 0
-0.282064 -0.575026 0
-0.358977 -0.646752 0
-0.325758 -0.664104 0
-0.358977 -0.646752 0
-0.325758 -0.664104 0
-0.415553 -0.748683 0
-0.3771 -0.76877 0
-0.415553 -0.748683 0
-0.3771 -0.76877 0
-0.482031 -0.868453 0
-0.437425 -0.891752 0
-0.482031 -0.868453 0
-0.437425 -0.891752 0
-0.560141 -1.00918 0
-0.508308 -1.03626 0
-0.560141 -1.00918 0
-0.508308 -1.03626 0
-0.651922 -1.17454 0
-0.591596 -1.20605 0
-0.651922 -1.17454 0
-0.591596 -1.20605 0
-0.759764 -1.36883 0
-0.689458 -1.40556 0
-0.759764 -1.36883 0
-0.689458 -1.40556 0
-0.886478 -1.59713 0
-0.804447 -1.63998 0
-0.886478 -1.59713 0
-0.804447 -1.63998 0
-1.03537 -1.86537 0
-0.939559 -1.91542 0
-1.03537 -1.86537 0
-0.939559 -1.91542 0
-1.21031 -2.18057 0
-1.09832 -2.23907 0
-1.21031 -2.18057 0
-1.09832 -2.23907 0
-1.41587 -2.55091 0
-1.28485 -2.61935 0
-1.41587 -2.55091 0
-1.28485 -2.61935 0
-1.65741 -2.98607 0
-1.50404 -3.06619 0
-1.65741 -2.98607 0
-1.50404 -3.06619 0
-1.94121 -3.49739 0
-1.76158 -3.59122 0
-0.0440394 -0.0897805 0
-0.0394356 -0.0918958 0
-0.0460798 -0.09394 0
-0.0412627 -0.0961534 0
-0.0460798 -0.09394 0
-0.0412627 -0.0961534 0
-0.0484772 -0.0988275 0
-0.0434095 -0.101156 0
-0.0484772 -0.0988275 0
-0.0434095 -0.101156 0
-0.0512942 -0.10457 0
-0.045932 -0.107034 0
-0.0512942 -0.10457 0
-0.045932 -0.107034 0
-0.0546042 -0.111318 0
-0.0488959 -0.113941 0
-0.0546042 -0.111318 0
-0.0488959 -0.113941 0
-0.0584934 -0.119247 0
-0.0523785 -0.122056 0
-0.0584934 -0.119247 0
-0.0523785 -0.122056 0
-0.0630632 -0.128563 0
-0.0564706 -0.131592 0
-0.0630632 -0.128563 0
-0.0564706 -0.131592 0
-0.0684327 -0.13951 0
-0.0612788 -0.142797 0
-0.0684327 -0.13951 0
-0.0612788 -0.142797 0
-0.0747419 -0.152372 0
-0.0669284 -0.155962 0
-0.0747419 -0.152372 0
-0.0669284 -0.155962 0
-0.0821552 -0.167485 0
-0.0735668 -0.171431 0
-0.0821552 -0.167485 0
-0.0735668 -0.171431 0
-0.0908658 -0.185243 0
-0.0813668 -0.189607 0
-0.0908658 -0.185243 0
-0.0813668 -0.189607 0
-0.101101 -0.206108 0
-0.0905318 -0.210964 0
-0.101101 -0.206108 0
-0.0905318 -0.210964 0
-0.113127 -0.230625 0
-0.101301 -0.236059 0
-0.113127 -0.230625 0
-0.101301 -0.236059 0
-0.127258 -0.259432 0
-0.113954 -0.265545 0
-0.127258 -0.259432 0
-0.113954 -0.265545 0
-0.143861 -0.293281 0
-0.128822 -0.300191 0
-0.143861 -0.293281 0
-0.128822 -0.300191 0
-0.16337 -0.333053 0
-0.146292 -0.3409 0
-0.16337 -0.333053 0
-0.146292 -0.3409 0
-0.186294 -0.379785 0
-0.166819 -0.388733 0
-0.186294 -0.379785 0
-0.166819 -0.388733 0
-0.213228 -0.434696 0
-0.190938 -0.444938 0
-0.213228 -0.434696 0
-0.190938 -0.444938 0
-0.244877 -0.499215 0
-0.219278 -0.510977 0
-0.244877 -0.499215 0
-0.219278 -0.510977 0
-0.282064 -0.575026 0
-0.252577 -0.588574 0
-0.282064 -0.575026 0
-0.252577 -0.588574 0
-0.325758 -0.664104 0
-0.291704 -0.679751 0
-0.325758 -0.664104 0
-0.291704 -0.679751 0
-0.3771 -0.76877 0
-0.337678 -0.786883 0
-0.3771 -0.76877 0
-0.337678 -0.786883 0
-0.437425 -0.891752 0
-0.391697 -0.912763 0
-0.437425 -0.891752 0
-0.391697 -0.912763 0
-0.508308 -1.03626 0
-0.45517 -1.06067 0
-0.508308 -1.03626 0
-0.45517 -1.06067 0
-0.591596 -1.20605 0
-0.529751 -1.23447 0
-0.591596 -1.20605 0
-0.529751 -1.23447 0
-0.689458 -1.40556 0
-0.617383 -1.43867 0
-0.689458 -1.40556 0
-0.617383 -1.43867 0
-0.804447 -1.63998 0
-0.720351 -1.67862 0
-0.804447 -1.63998 0
-0.720351 -1.67862 0
-0.939559 -1.91542 0
-0.841339 -1.96055 0
-0.939559 -1.91542 0
-0.841339 -1.96055 0
-1.09832 -2.23907 0
-0.983499 -2.29182 0
-1.09832 -2.23907 0
-0.983499 -2.29182 0
-1.28485 -2.61935 0
-1.15054 -2.68107 0
-1.28485 -2.61935 0
-1.15054 -2.68107 0
-1.50404 -3.06619 0
-1.34681 -3.13843 0
-1.50404 -3.06619 0
-1.34681 -3.13843 0
-1.76158 -3.59122 0
-1.57742 -3.67583 0
-0.0394356 -0.0918958 0
-0.0347305 -0.0937752 0
-0.0412627 -0.0961534 0
-0.0363396 -0.0981199 0
-0.0412627 -0.0961534 0
-0.0363396 -0.0981199 0
-0.0434095 -0.101156 0
-0.0382303 -0.103225 0
-0.0434095 -0.101156 0
-0.0382303 -0.103225 0
-0.045932 -0.107034 0
-0.0404518 -0.109223 0
-0.045932 -0.107034 0
-0.0404518 -0.109223 0
-0.0488959 -0.113941 0
-0.0430621 -0.116271 0
-0.0488959 -0.113941 0
-0.0430621 -0.116271 0
-0.0523785 -0.122056 0
-0.0461292 -0.124553 0
-0.0523785 -0.122056 0
-0.0461292 -0.124553 0
-0.0564706 -0.131592 0
-0.0497331 -0.134283 0
-0.0564706 -0.131592 0
-0.0497331 -0.134283 0
-0.0612788 -0.142797 0
-0.0539676 -0.145717 0
-0.0612788 -0.142797 0
-0.0539676 -0.145717 0
-0.0669284 -0.155962 0
-0.0589432 -0.159151 0
-0.0669284 -0.155962 0
-0.0589432 -0.159151 0
-0.0735668 -0.171431 0
-0.0647895 -0.174937 0
-0.0735668 -0.171431 0
-0.0647895 -0.174937 0
-0.0813668 -0.189607 0
-0.0716589 -0.193485 0
-0.0813668 -0.189607 0
-0.0716589 -0.193485 0
-0.0905318 -0.210964 0
-0.0797305 -0.215279 0
-0.0905318 -0.210964 0
-0.0797305 -0.215279 0
-0.101301 -0.236059 0
-0.0892145 -0.240886 0
-0.101301 -0.236059 0
-0.0892145 -0.240886 0
-0.113954 -0.265545 0
-0.100358 -0.270976 0
-0.113954 -0.265545 0
-0.100358 -0.270976 0
-0.128822 -0.300191 0
-0.113452 -0.30633 0
-0.128822 -0.300191 0
-0.113452 -0.30633 0
-0.146292 -0.3409 0
-0.128838 -0.347872 0
-0.146292 -0.3409 0
-0.128838 -0.347872 0
-0.166819 -0.388733 0
-0.146916 -0.396684 0
-0.166819 -0.388733 0
-0.146916 -0.396684 0
-0.190938 -0.444938 0
-0.168157 -0.454037 0
-0.190938 -0.444938 0
-0.168157 -0.454037 0
-0.219278 -0.510977 0
-0.193116 -0.521428 0
-0.219278 -0.510977 0
-0.193116 -0.521428 0
-0.252577 -0.588574 0
-0.222442 -0.600612 0
-0.252577 -0.588574 0
-0.222442 -0.600612 0
-0.291704 -0.679751 0
-0.256901 -0.693653 0
-0.291704 -0.679751 0
-0.256901 -0.693653 0
-0.337678 -0.786883 0
-0.29739 -0.802976 0
-0.337678 -0.786883 0
-0.29739 -0.802976 0
-0.391697 -0.912763 0
-0.344964 -0.931431 0
-0.391697 -0.912763 0
-0.344964 -0.931431 0
-0.45517 -1.06067 0
-0.400864 -1.08237 0
-0.45517 -1.06067 0
-0.400864 -1.08237 0
-0.529751 -1.23447 0
-0.466546 -1.25971 0
-0.529751 -1.23447 0
-0.466546 -1.25971 0
-0.617383 -1.43867 0
-0.543723 -1.4681 0
-0.617383 -1.43867 0
-0.543723 -1.4681 0
-0.720351 -1.67862 0
-0.634406 -1.71295 0
-0.720351 -1.67862 0
-0.634406 -1.71295 0
-0.841339 -1.96055 0
-0.740958 -2.00065 0
-0.841339 -1.96055 0
-0.740958 -2.00065 0
-0.983499 -2.29182 0
-0.866157 -2.33869 0
-0.983499 -2.29182 0
-0.866157 -2.33869 0
-1.15054 -2.68107 0
-1.01327 -2.7359 0
-1.15054 -2.68107 0
-1.01327 -2.7359 0
-1.34681 -3.13843 0
-1.18612 -3.20262 0
-1.34681 -3.13843 0
-1.18612 -3.20262 0
-1.57742 -3.67583 0
-1.38922 -3.75101 0
-0.0347305 -0.0937752 0
-0.0299363 -0.0954139 0
-0.0363396 -0.0981199 0
-0.0313233 -0.0998345 0
-0.0363396 -0.0981199 0
-0.0313233 -0.0998345 0
-0.0382303 -0.103225 0
-0.032953 -0.105029 0
-0.0382303 -0.103225 0
-0.032953 -0.105029 0
-0.0404518 -0.109223 0
-0.0348678 -0.111132 0
-0.0404518 -0.109223 0
-0.0348678 -0.111132 0
-0.0430621 -0.116271 0
-0.0371178 -0.118303 0
-0.0430621 -0.116271 0
-0.0371178 -0.118303 0
-0.0461292 -0.124553 0
-0.0397615 -0.126729 0
-0.0461292 -0.124553 0
-0.0397615 -0.126729 0
-0.0497331 -0.134283 0
-0.0428679 -0.13663 0
-0.0497331 -0.134283 0
-0.0428679 -0.13663 0
-0.0539676 -0.145717 0
-0.0465179 -0.148263 0
-0.0539676 -0.145717 0
-0.0465179 -0.148263 0
-0.0589432 -0.159151 0
-0.0508067 -0.161933 0
-0.0589432 -0.159151 0
-0.0508067 -0.161933 0
-0.0647895 -0.174937 0
-0.0558459 -0.177994 0
-0.0647895 -0.174937 0
-0.0558459 -0.177994 0
-0.0716589 -0.193485 0
-0.0617671 -0.196866 0
-0.0716589 -0.193485 0
-0.0617671 -0.196866 0
-0.0797305 -0.215279 0
-0.0687245 -0.219041 0
-0.0797305 -0.215279 0
-0.0687245 -0.219041 0
-0.0892145 -0.240886 0
-0.0768993 -0.245096 0
-0.0892145 -0.240886 0
-0.0768993 -0.245096 0
-0.100358 -0.270976 0
-0.0865048 -0.275711 0
-0.100358 -0.270976 0
-0.0865048 -0.275711 0
-0.113452 -0.30633 0
-0.0977913 -0.311683 0
-0.113452 -0.30633 0
-0.0977913 -0.311683 0
-0.128838 -0.347872 0
-0.111053 -0.353951 0
-0.128838 -0.347872 0
-0.111053 -0.353951 0
-0.146916 -0.396684 0
-0.126635 -0.403616 0
-0.146916 -0.396684 0
-0.126635 -0.403616 0
-0.168157 -0.454037 0
-0.144945 -0.461972 0
-0.168157 -0.454037 0
-0.144945 -0.461972 0
-0.193116 -0.521428 0
-0.166458 -0.53054 0
-0.193116 -0.521428 0
-0.166458 -0.53054 0
-0.222442 -0.600612 0
-0.191736 -0.611107 0
-0.222442 -0.600612 0
-0.191736 -0.611107 0
-0.256901 -0.693653 0
-0.221438 -0.705774 0
-0.256901 -0.693653 0
-0.221438 -0.705774 0
-0.29739 -0.802976 0
-0.256338 -0.817008 0
-0.29739 -0.802976 0
-0.256338 -0.817008 0
-0.344964 -0.931431 0
-0.297345 -0.947707 0
-0.344964 -0.931431 0
-0.297345 -0.947707 0
-0.400864 -1.08237 0
-0.345529 -1.10128 0
-0.400864 -1.08237 0
-0.345529 -1.10128 0
-0.466546 -1.25971 0
-0.402144 -1.28173 0
-0.466546 -1.25971 0
-0.402144 -1.28173 0
-0.543723 -1.4681 0
-0.468668 -1.49375 0
-0.543723 -1.4681 0
-0.468668 -1.49375 0
-0.634406 -1.71295 0
-0.546832 -1.74288 0
-0.634406 -1.71295 0
-0.546832 -1.74288 0
-0.740958 -2.00065 0
-0.638676 -2.03561 0
-0.740958 -2.00065 0
-0.638676 -2.03561 0
-0.866157 -2.33869 0
-0.746593 -2.37956 0
-0.866157 -2.33869 0
-0.746593 -2.37956 0
-1.01327 -2.7359 0
-0.873395 -2.78371 0
-1.01327 -2.7359 0
-0.873395 -2.78371 0
-1.18612 -3.20262 0
-1.02239 -3.25858 0
-1.18612 -3.20262 0
-1.02239 -3.25858 0
-1.38922 -3.75101 0
-1.19745 -3.81656 0
-0.0299363 -0.0954139 0
-0.0250653 -0.0968077 0
-0.0313233 -0.0998345 0
-0.0262265 -0.101293 0
-0.0313233 -0.0998345 0
-0.0262265 -0.101293 0
-0.032953 -0.105029 0
-0.0275911 -0.106563 0
-0.032953 -0.105029 0
-0.0275911 -0.106563 0
-0.0348678 -0.111132 0
-0.0291944 -0.112755 0
-0.0348678 -0.111132 0
-0.0291944 -0.112755 0
-0.0371178 -0.118303 0
-0.0310782 -0.120031 0
-0.0371178 -0.118303 0
-0.0310782 -0.120031 0
-0.0397615 -0.126729 0
-0.0332918 -0.12858 0
-0.0397615 -0.126729 0
-0.0332918 -0.12858 0
-0.0428679 -0.13663 0
-0.0358927 -0.138626 0
-0.0428679 -0.13663 0
-0.0358927 -0.138626 0
-0.0465179 -0.148263 0
-0.0389488 -0.150429 0
-0.0465179 -0.148263 0
-0.0389488 -0.150429 0
-0.0508067 -0.161933 0
-0.0425397 -0.164298 0
-0.0508067 -0.161933 0
-0.0425397 -0.164298 0
-0.0558459 -0.177994 0
-0.046759 -0.180594 0
-0.0558459 -0.177994 0
-0.046759 -0.180594 0
-0.0617671 -0.196866 0
-0.0517167 -0.199742 0
-0.0617671 -0.196866 0
-0.0517167 -0.199742 0
-0.0687245 -0.219041 0
-0.057542 -0.22224 0
-0.0687245 -0.219041 0
-0.057542 -0.22224 0
-0.0768993 -0.245096 0
-0.0643867 -0.248676 0
-0.0768993 -0.245096 0
-0.0643867 -0.248676 0
-0.0865048 -0.275711 0
-0.0724293 -0.279738 0
-0.0865048 -0.275711 0
-0.0724293 -0.279738 0
-0.0977913 -0.311683 0
-0.0818793 -0.316236 0
-0.0977913 -0.311683 0
-0.0818793 -0.316236 0
-0.111053 -0.353951 0
-0.092983 -0.359122 0
-0.111053 -0.353951 0
-0.092983 -0.359122 0
-0.126635 -0.403616 0
-0.10603 -0.409512 0
-0.126635 -0.403616 0
-0.10603 -0.409512 0
-0.144945 -0.461972 0
-0.12136 -0.46872 0
-0.144945 -0.461972 0
-0.12136 -0.46872 0
-0.166458 -0.53054 0
-0.139373 -0.53829 0
-0.166458 -0.53054 0
-0.139373 -0.53829 0
-0.191736 -0.611107 0
-0.160538 -0.620034 0
-0.191736 -0.611107 0
-0.160538 -0.620034 0
-0.221438 -0.705774 0
-0.185407 -0.716084 0
-0.221438 -0.705774 0
-0.185407 -0.716084 0
-0.256338 -0.817008 0
-0.214628 -0.828943 0
-0.256338 -0.817008 0
-0.214628 -0.828943 0
-0.297345 -0.947707 0
-0.248963 -0.961551 0
-0.297345 -0.947707 0
-0.248963 -0.961551 0
-0.345529 -1.10128 0
-0.289306 -1.11737 0
-0.345529 -1.10128 0
-0.289306 -1.11737 0
-0.402144 -1.28173 0
-0.33671 -1.30045 0
-0.402144 -1.28173 0
-0.33671 -1.30045 0
-0.468668 -1.49375 0
-0.392409 -1.51557 0
-0.468668 -1.49375 0
-0.392409 -1.51557 0
-0.546832 -1.74288 0
-0.457855 -1.76834 0
-0.546832 -1.74288 0
-0.457855 -1.76834 0
-0.638676 -2.03561 0
-0.534755 -2.06534 0
-0.638676 -2.03561 0
-0.534755 -2.06534 0
-0.746593 -2.37956 0
-0.625112 -2.41432 0
-0.746593 -2.37956 0
-0.625112 -2.41432 0
-0.873395 -2.78371 0
-0.731281 -2.82437 0
-0.873395 -2.78371 0
-0.731281 -2.82437 0
-1.02239 -3.25858 0
-0.85603 -3.30618 0
-1.02239 -3.25858 0
-0.85603 -3.30618 0
-1.19745 -3.81656 0
-1.00261 -3.87231 0
-0.0250653 -0.0968077 0
-0.0201299 -0.097953 0
-0.0262265 -0.101293 0
-0.0210625 -0.102491 0
-0.0262265 -0.101293 0
-0.0210625 -0.102491 0
-0.0275911 -0.106563 0
-0.0221583 -0.107824 0
-0.0275911 -0.106563 0
-0.0221583 -0.107824 0
-0.0291944 -0.112755 0
-0.0234459 -0.114089 0
-0.0291944 -0.112755 0
-0.0234459 -0.114089 0
-0.0310782 -0.120031 0
-0.0249589 -0.121451 0
-0.0310782 -0.120031 0
-0.0249589 -0.121451 0
-0.0332918 -0.12858 0
-0.0267366 -0.130102 0
-0.0332918 -0.12858 0
-0.0267366 -0.130102 0
-0.0358927 -0.138626 0
-0.0288254 -0.140266 0
-0.0358927 -0.138626 0
-0.0288254 -0.140266 0
-0.0389488 -0.150429 0
-0.0312797 -0.152209 0
-0.0389488 -0.150429 0
-0.0312797 -0.152209 0
-0.0425397 -0.164298 0
-0.0341636 -0.166242 0
-0.0425397 -0.164298 0
-0.0341636 -0.166242 0
-0.046759 -0.180594 0
-0.0375521 -0.182731 0
-0.046759 -0.180594 0
-0.0375521 -0.182731 0
-0.0517167 -0.199742 0
-0.0415336 -0.202105 0
-0.0517167 -0.199742 0
-0.0415336 -0.202105 0
-0.057542 -0.22224 0
-0.0462119 -0.22487 0
-0.057542 -0.22224 0
-0.0462119 -0.22487 0
-0.0643867 -0.248676 0
-0.0517089 -0.251618 0
-0.0643867 -0.248676 0
-0.0517089 -0.251618 0
-0.0724293 -0.279738 0
-0.0581678 -0.283048 0
-0.0724293 -0.279738 0
-0.0581678 -0.283048 0
-0.0818793 -0.316236 0
-0.0657571 -0.319978 0
-0.0818793 -0.316236 0
-0.0657571 -0.319978 0
-0.092983 -0.359122 0
-0.0746745 -0.36337 0
-0.092983 -0.359122 0
-0.0746745 -0.36337 0
-0.10603 -0.409512 0
-0.0851524 -0.414356 0
-0.10603 -0.409512 0
-0.0851524 -0.414356 0
-0.12136 -0.46872 0
-0.097464 -0.474265 0
-0.12136 -0.46872 0
-0.097464 -0.474265 0
-0.139373 -0.53829 0
-0.11193 -0.544658 0
-0.139373 -0.53829 0
-0.11193 -0.544658 0
-0.160538 -0.620034 0
-0.128928 -0.62737 0
-0.160538 -0.620034 0
-0.128928 -0.62737 0
-0.185407 -0.716084 0
-0.1489 -0.724556 0
-0.185407 -0.716084 0
-0.1489 -0.724556 0
-0.214628 -0.828943 0
-0.172367 -0.838749 0
-0.214628 -0.828943 0
-0.172367 -0.838749 0
-0.248963 -0.961551 0
-0.199942 -0.972927 0
-0.248963 -0.961551 0
-0.199942 -0.972927 0
-0.289306 -1.11737 0
-0.232341 -1.13059 0
-0.289306 -1.11737 0
-0.232341 -1.13059 0
-0.33671 -1.30045 0
-0.270411 -1.31583 0
-0.33671 -1.30045 0
-0.270411 -1.31583 0
-0.392409 -1.51557 0
-0.315143 -1.5335 0
-0.392409 -1.51557 0
-0.315143 -1.5335 0
-0.457855 -1.76834 0
-0.367703 -1.78926 0
-0.457855 -1.76834 0
-0.367703 -1.78926 0
-0.534755 -2.06534 0
-0.42946 -2.08978 0
-0.534755 -2.06534 0
-0.42946 -2.08978 0
-0.625112 -2.41432 0
-0.502026 -2.44289 0
-0.625112 -2.41432 0
-0.502026 -2.44289 0
-0.731281 -2.82437 0
-0.58729 -2.85779 0
-0.731281 -2.82437 0
-0.58729 -2.85779 0
-0.85603 -3.30618 0
-0.687476 -3.3453 0
-0.85603 -3.30618 0
-0.687476 -3.3453 0
-1.00261 -3.87231 0
-0.805194 -3.91812 0
-0.0201299 -0.097953 0
-0.0151428 -0.0988468 0
-0.0210625 -0.102491 0
-0.0158444 -0.103426 0
-0.0210625 -0.102491 0
-0.0158444 -0.103426 0
-0.0221583 -0.107824 0
-0.0166687 -0.108808 0
-0.0221583 -0.107824 0
-0.0166687 -0.108808 0
-0.0234459 -0.114089 0
-0.0176373 -0.11513 0
-0.0234459 -0.114089 0
-0.0176373 -0.11513 0
-0.0249589 -0.121451 0
-0.0187754 -0.122559 0
-0.0249589 -0.121451 0
-0.0187754 -0.122559 0
-0.0267366 -0.130102 0
-0.0201127 -0.131289 0
-0.0267366 -0.130102 0
-0.0201127 -0.131289 0
-0.0288254 -0.140266 0
-0.021684 -0.141546 0
-0.0288254 -0.140266 0
-0.021684 -0.141546 0
-0.0312797 -0.152209 0
-0.0235303 -0.153598 0
-0.0312797 -0.152209 0
-0.0235303 -0.153598 0
-0.0341636 -0.166242 0
-0.0256997 -0.167759 0
-0.0341636 -0.166242 0
-0.0256997 -0.167759 0
-0.0375521 -0.182731 0
-0.0282487 -0.184398 0
-0.0375521 -0.182731 0
-0.0282487 -0.184398 0
-0.0415336 -0.202105 0
-0.0312438 -0.203949 0
-0.0415336 -0.202105 0
-0.0312438 -0.203949 0
-0.0462119 -0.22487 0
-0.0347631 -0.226922 0
-0.0462119 -0.22487 0
-0.0347631 -0.226922 0
-0.0517089 -0.251618 0
-0.0388982 -0.253914 0
-0.0517089 -0.251618 0
-0.0388982 -0.253914 0
-0.0581678 -0.283048 0
-0.043757 -0.285631 0
-0.0581678 -0.283048 0
-0.043757 -0.285631 0
-0.0657571 -0.319978 0
-0.0494661 -0.322897 0
-0.0657571 -0.319978 0
-0.0494661 -0.322897 0
-0.0746745 -0.36337 0
-0.0561742 -0.366686 0
-0.0746745 -0.36337 0
-0.0561742 -0.366686 0
-0.0851524 -0.414356 0
-0.0640563 -0.418137 0
-0.0851524 -0.414356 0
-0.0640563 -0.418137 0
-0.097464 -0.474265 0
-0.0733177 -0.478593 0
-0.097464 -0.474265 0
-0.0733177 -0.478593 0
-0.11193 -0.544658 0
-0.0841999 -0.549628 0
-0.11193 -0.544658 0
-0.0841999 -0.549628 0
-0.128928 -0.62737 0
-0.0969865 -0.633094 0
-0.128928 -0.62737 0
-0.0969865 -0.633094 0
-0.1489 -0.724556 0
-0.112011 -0.731167 0
-0.1489 -0.724556 0
-0.112011 -0.731167 0
-0.172367 -0.838749 0
-0.129664 -0.846403 0
-0.172367 -0.838749 0
-0.129664 -0.846403 0
-0.199942 -0.972927 0
-0.150407 -0.981805 0
-0.199942 -0.972927 0
-0.150407 -0.981805 0
-0.232341 -1.13059 0
-0.17478 -1.1409 0
-0.232341 -1.13059 0
-0.17478 -1.1409 0
-0.270411 -1.31583 0
-0.203418 -1.32784 0
-0.270411 -1.31583 0
-0.203418 -1.32784 0
-0.315143 -1.5335 0
-0.237068 -1.5475 0
-0.315143 -1.5335 0
-0.237068 -1.5475 0
-0.367703 -1.78926 0
-0.276606 -1.80559 0
-0.367703 -1.78926 0
-0.276606 -1.80559 0
-0.42946 -2.08978 0
-0.323064 -2.10885 0
-0.42946 -2.08978 0
-0.323064 -2.10885 0
-0.502026 -2.44289 0
-0.377651 -2.46518 0
-0.502026 -2.44289 0
-0.377651 -2.46518 0
-0.58729 -2.85779 0
-0.441792 -2.88387 0
-0.58729 -2.85779 0
-0.441792 -2.88387 0
-0.687476 -3.3453 0
-0.517157 -3.37582 0
-0.687476 -3.3453 0
-0.517157 -3.37582 0
-0.805194 -3.91812 0
-0.605711 -3.95387 0
-0.0151428 -0.0988468 0
-0.0101168 -0.0994869 0
-0.0158444 -0.103426 0
-0.0105856 -0.104096 0
-0.0158444 -0.103426 0
-0.0105856 -0.104096 0
-0.0166687 -0.108808 0
-0.0111363 -0.109512 0
-0.0166687 -0.108808 0
-0.0111363 -0.109512 0
-0.0176373 -0.11513 0
-0.0117834 -0.115876 0
-0.0176373 -0.11513 0
-0.0117834 -0.115876 0
-0.0187754 -0.122559 0
-0.0125438 -0.123353 0
-0.0187754 -0.122559 0
-0.0125438 -0.123353 0
-0.0201127 -0.131289 0
-0.0134372 -0.132139 0
-0.0201127 -0.131289 0
-0.0134372 -0.132139 0
-0.021684 -0.141546 0
-0.014487 -0.142462 0
-0.021684 -0.141546 0
-0.014487 -0.142462 0
-0.0235303 -0.153598 0
-0.0157205 -0.154592 0
-0.0235303 -0.153598 0
-0.0157205 -0.154592 0
-0.0256997 -0.167759 0
-0.0171699 -0.168845 0
-0.0256997 -0.167759 0
-0.0171699 -0.168845 0
-0.0282487 -0.184398 0
-0.0188729 -0.185592 0
-0.0282487 -0.184398 0
-0.0188729 -0.185592 0
-0.0312438 -0.203949 0
-0.0208739 -0.20527 0
-0.0312438 -0.203949 0
-0.0208739 -0.20527 0
-0.0347631 -0.226922 0
-0.0232251 -0.228391 0
-0.0347631 -0.226922 0
-0.0232251 -0.228391 0
-0.0388982 -0.253914 0
-0.0259878 -0.255559 0
-0.0388982 -0.253914 0
-0.0259878 -0.255559 0
-0.043757 -0.285631 0
-0.0292339 -0.28748 0
-0.043757 -0.285631 0
-0.0292339 -0.28748 0
-0.0494661 -0.322897 0
-0.0330481 -0.324988 0
-0.0494661 -0.322897 0
-0.0330481 -0.324988 0
-0.0561742 -0.366686 0
-0.0375298 -0.36906 0
-0.0561742 -0.366686 0
-0.0375298 -0.36906 0
-0.0640563 -0.418137 0
-0.0427958 -0.420845 0
-0.0640563 -0.418137 0
-0.0427958 -0.420845 0
-0.0733177 -0.478593 0
-0.0489833 -0.481692 0
-0.0733177 -0.478593 0
-0.0489833 -0.481692 0
-0.0841999 -0.549628 0
-0.0562536 -0.553187 0
-0.0841999 -0.549628 0
-0.0562536 -0.553187 0
-0.0969865 -0.633094 0
-0.0647963 -0.637194 0
-0.0969865 -0.633094 0
-0.0647963 -0.637194 0
-0.112011 -0.731167 0
-0.0748339 -0.735902 0
-0.112011 -0.731167 0
-0.0748339 -0.735902 0
-0.129664 -0.846403 0
-0.0866281 -0.851884 0
-0.129664 -0.846403 0
-0.0866281 -0.851884 0
-0.150407 -0.981805 0
-0.100486 -0.988163 0
-0.150407 -0.981805 0
-0.100486 -0.988163 0
-0.17478 -1.1409 0
-0.11677 -1.14829 0
-0.17478 -1.1409 0
-0.11677 -1.14829 0
-0.203418 -1.32784 0
-0.135903 -1.33644 0
-0.203418 -1.32784 0
-0.135903 -1.33644 0
-0.237068 -1.5475 0
-0.158384 -1.55752 0
-0.237068 -1.5475 0
-0.158384 -1.55752 0
-0.276606 -1.80559 0
-0.184799 -1.81728 0
-0.276606 -1.80559 0
-0.184799 -1.81728 0
-0.323064 -2.10885 0
-0.215838 -2.1225 0
-0.323064 -2.10885 0
-0.215838 -2.1225 0
-0.377651 -2.46518 0
-0.252307 -2.48114 0
-0.377651 -2.46518 0
-0.252307 -2.48114 0
-0.441792 -2.88387 0
-0.295159 -2.90254 0
-0.441792 -2.88387 0
-0.295159 -2.90254 0
-0.517157 -3.37582 0
-0.345511 -3.39768 0
-0.517157 -3.37582 0
-0.345511 -3.39768 0
-0.605711 -3.95387 0
-0.404673 -3.97948 0
-0.0101168 -0.0994869 0
-0.00506492 -0.0998717 0
-0.0105856 -0.104096 0
-0.00529958 -0.104499 0
-0.0105856 -0.104096 0
-0.00529958 -0.104499 0
-0.0111363 -0.109512 0
-0.0055753 -0.109936 0
-0.0111363 -0.109512 0
-0.0055753 -0.109936 0
-0.0117834 -0.115876 0
-0.00589928 -0.116324 0
-0.0117834 -0.115876 0
-0.00589928 -0.116324 0
-0.0125438 -0.123353 0
-0.00627995 -0.12383 0
-0.0125438 -0.123353 0
-0.00627995 -0.12383 0
-0.0134372 -0.132139 0
-0.00672725 -0.13265 0
-0.0134372 -0.132139 0
-0.00672725 -0.13265 0
-0.014487 -0.142462 0
-0.00725281 -0.143013 0
-0.014487 -0.142462 0
-0.00725281 -0.143013 0
-0.0157205 -0.154592 0
-0.00787036 -0.15519 0
-0.0157205 -0.154592 0
-0.00787036 -0.15519 0
-0.0171699 -0.168845 0
-0.00859597 -0.169498 0
-0.0171699 -0.168845 0
-0.00859597 -0.169498 0
-0.0188729 -0.185592 0
-0.00944856 -0.18631 0
-0.0188729 -0.185592 0
-0.00944856 -0.18631 0
-0.0208739 -0.20527 0
-0.0104504 -0.206064 0
-0.0208739 -0.20527 0
-0.0104504 -0.206064 0
-0.0232251 -0.228391 0
-0.0116275 -0.229274 0
-0.0232251 -0.228391 0
-0.0116275 -0.229274 0
-0.0259878 -0.255559 0
-0.0130106 -0.256547 0
-0.0259878 -0.255559 0
-0.0130106 -0.256547 0
-0.0292339 -0.28748 0
-0.0146357 -0.288592 0
-0.0292339 -0.28748 0
-0.0146357 -0.288592 0
-0.0330481 -0.324988 0
-0.0165453 -0.326245 0
-0.0330481 -0.324988 0
-0.0165453 -0.326245 0
-0.0375298 -0.36906 0
-0.018789 -0.370488 0
-0.0375298 -0.36906 0
-0.018789 -0.370488 0
-0.0427958 -0.420845 0
-0.0214254 -0.422473 0
-0.0427958 -0.420845 0
-0.0214254 -0.422473 0
-0.0489833 -0.481692 0
-0.0245231 -0.483555 0
-0.0489833 -0.481692 0
-0.0245231 -0.483555 0
-0.0562536 -0.553187 0
-0.028163 -0.555326 0
-0.0562536 -0.553187 0
-0.028163 -0.555326 0
-0.0647963 -0.637194 0
-0.0324398 -0.639658 0
-0.0647963 -0.637194 0
-0.0324398 -0.639658 0
-0.0748339 -0.735902 0
-0.0374651 -0.738748 0
-0.0748339 -0.735902 0
-0.0374651 -0.738748 0
-0.0866281 -0.851884 0
-0.0433697 -0.855178 0
-0.0866281 -0.851884 0
-0.0433697 -0.855178 0
-0.100486 -0.988163 0
-0.0503077 -0.991984 0
-0.100486 -0.988163 0
-0.0503077 -0.991984 0
-0.11677 -1.14829 0
-0.0584599 -1.15273 0
-0.11677 -1.14829 0
-0.0584599 -1.15273 0
-0.135903 -1.33644 0
-0.0680387 -1.34161 0
-0.135903 -1.33644 0
-0.0680387 -1.34161 0
-0.158384 -1.55752 0
-0.0792937 -1.56354 0
-0.158384 -1.55752 0
-0.0792937 -1.56354 0
-0.184799 -1.81728 0
-0.0925184 -1.82431 0
-0.184799 -1.81728 0
-0.0925184 -1.82431 0
-0.215838 -2.1225 0
-0.108057 -2.13071 0
-0.215838 -2.1225 0
-0.108057 -2.13071 0
-0.252307 -2.48114 0
-0.126316 -2.49074 0
-0.252307 -2.48114 0
-0.126316 -2.49074 0
-0.295159 -2.90254 0
-0.147769 -2.91376 0
-0.295159 -2.90254 0
-0.147769 -2.91376 0
-0.345511 -3.39768 0
-0.172977 -3.41082 0
-0.345511 -3.39768 0
-0.172977 -3.41082 0
-0.404673 -3.97948 0
-0.202597 -3.99487 0
-0.00506492 -0.0998717 0
0 -0.1 0
-0.00529958 -0.104499 0
0 -0.104633 0
-0.00529958 -0.104499 0
0 -0.104633 0
-0.0055753 -0.109936 0
0 -0.110077 0
-0.0055753 -0.109936 0
0 -0.110077 0
-0.00589928 -0.116324 0
0 -0.116473 0
-0.00589928 -0.116324 0
0 -0.116473 0
-0.00627995 -0.12383 0
0 -0.123989 0
-0.00627995 -0.12383 0
0 -0.123989 0
-0.00672725 -0.13265 0
0 -0.13282 0
-0.00672725 -0.13265 0
0 -0.13282 0
-0.00725281 -0.143013 0
0 -0.143197 0
-0.00725281 -0.143013 0
0 -0.143197 0
-0.00787036 -0.15519 0
0 -0.15539 0
-0.00787036 -0.15519 0
0 -0.15539 0
-0.00859597 -0.169498 0
0 -0.169716 0
-0.00859597 -0.169498 0
0 -0.169716 0
-0.00944856 -0.18631 0
0 -0.186549 0
-0.00944856 -0.18631 0
0 -0.186549 0
-0.0104504 -0.206064 0
0 -0.206328 0
-0.0104504 -0.206064 0
0 -0.206328 0
-0.0116275 -0.229274 0
0 -0.229569 0
-0.0116275 -0.229274 0
0 -0.229569 0
-0.0130106 -0.256547 0
0 -0.256876 0
-0.0130106 -0.256547 0
0 -0.256876 0
-0.0146357 -0.288592 0
0 -0.288963 0
-0.0146357 -0.288592 0
0 -0.288963 0
-0.0165453 -0.326245 0
0 -0.326664 0
-0.0165453 -0.326245 0
0 -0.326664 0
-0.018789 -0.370488 0
0 -0.370964 0
-0.018789 -0.370488 0
0 -0.370964 0
-0.0214254 -0.422473 0
0 -0.423015 0
-0.0214254 -0.422473 0
0 -0.423015 0
-0.0245231 -0.483555 0
0 -0.484176 0
-0.0245231 -0.483555 0
0 -0.484176 0
-0.028163 -0.555326 0
0 -0.55604 0
-0.028163 -0.555326 0
0 -0.55604 0
-0.0324398 -0.639658 0
0 -0.64048 0
-0.0324398 -0.639658 0
0 -0.64048 0
-0.0374651 -0.738748 0
0 -0.739697 0
-0.0374651 -0.738748 0
0 -0.739697 0
-0.0433697 -0.855178 0
0 -0.856277 0
-0.0433697 -0.855178 0
0 -0.856277 0
-0.0503077 -0.991984 0
0 -0.993259 0
-0.0503077 -0.991984 0
0 -0.993259 0
-0.0584599 -1.15273 0
0 -1.15421 0
-0.0584599 -1.15273 0
0 -1.15421 0
-0.0680387 -1.34161 0
0 -1.34333 0
-0.0680387 -1.34161 0
0 -1.34333 0
-0.0792937 -1.56354 0
0 -1.56555 0
-0.0792937 -1.56354 0
0 -1.56555 0
-0.0925184 -1.82431 0
0 -1.82665 0
-0.0925184 -1.82431 0
0 -1.82665 0
-0.108057 -2.13071 0
0 -2.13345 0
-0.108057 -2.13071 0
0 -2.13345 0
-0.126316 -2.49074 0
0 -2.49394 0
-0.126316 -2.49074 0
0 -2.49394 0
-0.147769 -2.91376 0
0 -2.91751 0
-0.147769 -2.91376 0
0 -2.91751 0
-0.172977 -3.41082 0
0 -3.41521 0
-0.172977 -3.41082 0
0 -3.41521 0
-0.202597 -3.99487 0
0 -4 0
0 -0.1 0
0.00506492 -0.0998717 0
0 -0.104633 0
0.00529958 -0.104499 0
0 -0.104633 0
0.00529958 -0.104499 0
0 -0.110077 0
0.0055753 -0.109936 0
0 -0.110077 0
0.0055753 -0.109936 0
0 -0.116473 0
0.00589928 -0.116324 0
0 -0.116473 0
0.00589928 -0.116324 0
0 -0.123989 0
0.00627995 -0.12383 0
0 -0.123989 0
0.00627995 -0.12383 0
0 -0.13282 0
0.00672725 -0.13265 0
0 -0.13282 0
0.00672725 -0.13265 0
0 -0.143197 0
0.00725281 -0.143013 0
0 -0.143197 0
0.00725281 -0.143013 0
0 -0.15539 0
0.00787036 -0.15519 0
0 -0.15539 0
0.00787036 -0.15519 0
0 -0.169716 0
0.00859597 -0.169498 0
0 -0.169716 0
0.00859597 -0.169498 0
0 -0.186549 0
0.00944856 -0.18631 0
0 -0.186549 0
0.00944856 -0.18631 0
0 -0.206328 0
0.0104504 -0.206064 0
0 -0.206328 0
0.0104504 -0.206064 0
0 -0.229569 0
0.0116275 -0.229274 0
0 -0.229569 0
0.0116275 -0.229274 0
0 -0.256876 0
0.0130106 -0.256547 0
0 -0.256876 0
0.0130106 -0.256547 0
0 -0.288963 0
0.0146357 -0.288592 0
0 -0.288963 0
0.0146357 -0.288592 0
0 -0.326664 0
0.0165453 -0.326245 0
0 -0.326664 0
0.0165453 -0.326245 0
0 -0.370964 0
0.018789 -0.370488 0
0 -0.370964 0
0.018789 -0.370488 0
0 -0.423015 0
0.0214254 -0.422473 0
0 -0.423015 0
0.0214254 -0.422473 0
0 -0.484176 0
0.0245231 -0.483555 0
0 -0.484176 0
0.0245231 -0.483555 0
0 -0.55604 0
0.028163 -0.555326 0
0 -0.55604 0
0.028163 -0.555326 0
0 -0.64048 0
0.0324398 -0.639658 0
0 -0.64048 0
0.0324398 -0.639658 0
0 -0.739697 0
0.0374651 -0.738748 0
0 -0.739697 0
0.0374651 -0.738748 0
0 -0.856277 0
0.0433697 -0.855178 0
0 -0.856277 0
0.0433697 -0.855178 0
0 -0.993259 0
0.0503077 -0.991984 0
0 -0.993259 0
0.0503077 -0.991984 0
0 -1.15421 0
0.0584599 -1.15273 0
0 -1.15421 0
0.0584599 -1.15273 0
0 -1.34333 0
0.0680387 -1.34161 0
0 -1.34333 0
0.0680387 -1.34161 0
0 -1.56555 0
0.0792937 -1.56354 0
0 -1.56555 0
0.0792937 -1.56354 0
0 -1.82665 0
0.0925184 -1.82431 0
0 -1.82665 0
0.0925184 -1.82431 0
0 -2.13345 0
0.108057 -2.13071 0
0 -2.13345 0
0.108057 -2.13071 0
0 -2.49394 0
0.126316 -2.49074 0
0 -2.49394 0
0.126316 -2.49074 0
0 -2.91751 0
0.147769 -2.91376 0
0 -2.91751 0
0.147769 -2.91376 0
0 -3.41521 0
0.172977 -3.41082 0
0 -3.41521 0
0.172977 -3.41082 0
0 -4 0
0.202597 -3.99487 0
0.00506492 -0.0998717 0
0.0101168 -0.0994869 0
0.00529958 -0.104499 0
0.0105856 -0.104096 0
0.00529958 -0.104499 0
0.0105856 -0.104096 0
0.0055753 -0.109936 0
0.0111363 -0.109512 0
0.0055753 -0.109936 0
0.0111363 -0.109512 0
0.00589928 -0.116324 0
0.0117834 -0.115876 0
0.00589928 -0.116324 0
0.0117834 -0.115876 0
0.00627995 -0.12383 0
0.0125438 -0.123353 0
0.00627995 -0.12383 0
0.0125438 -0.123353 0
0.00672725 -0.13265 0
0.0134372 -0.132139 0
0.00672725 -0.13265 0
0.0134372 -0.132139 0
0.00725281 -0.143013 0
0.014487 -0.142462 0
0.00725281 -0.143013 0
0.014487 -0.142462 0
0.00787036 -0.15519 0
0.0157205 -0.154592 0
0.00787036 -0.15519 0
0.0157205 -0.154592 0
0.00859597 -0.169498 0
0.0171699 -0.168845 0
0.00859597 -0.169498 0
0.0171699 -0.168845 0
0.00944856 -0.18631 0
0.0188729 -0.185592 0
0.00944856 -0.18631 0
0.0188729 -0.185592 0
0.0104504 -0.206064 0
0.0208739 -0.20527 0
0.0104504 -0.206064 0
0.0208739 -0.20527 0
0.0116275 -0.229274 0
0.0232251 -0.228391 0
0.0116275 -0.229274 0
0.0232251 -0.228391 0
0.0130106 -0.256547 0
0.0259878 -0.255559 0
0.0130106 -0.256547 0
0.0259878 -0.255559 0
0.0146357 -0.288592 0
0.0292339 -0.28748 0
0.0146357 -0.288592 0
0.0292339 -0.28748 0
0.0165453 -0.326245 0
0.0330481 -0.324988 0
0.0165453 -0.326245 0
0.0330481 -0.324988 0
0.018789 -0.370488 0
0.0375298 -0.36906 0
0.018789 -0.370488 0
0.0375298 -0.36906 0
0.0214254 -0.422473 0
0.0427958 -0.420845 0
0.0214254 -0.422473 0
0.0427958 -0.420845 0
0.0245231 -0.483555 0
0.0489833 -0.481692 0
0.0245231 -0.483555 0
0.0489833 -0.481692 0
0.028163 -0.555326 0
0.0562536 -0.553187 0
0.028163 -0.555326 0
0.0562536 -0.553187 0
0.0324398 -0.639658 0
0.0647963 -0.637194 0
0.0324398 -0.639658 0
0.0647963 -0.637194 0
0.0374651 -0.738748 0
0.0748339 -0.735902 0
0.0374651 -0.738748 0
0.0748339 -0.735902 0
0.0433697 -0.855178 0
0.0866281 -0.851884 0
0.0433697 -0.855178 0
0.0866281 -0.851884 0
0.0503077 -0.991984 0
0.100486 -0.988163 0
0.0503077 -0.991984 0
0.100486 -0.988163 0
0.0584599 -1.15273 0
0.11677 -1.14829 0
0.0584599 -1.15273 0
0.11677 -1.14829 0
0.0680387 -1.34161 0
0.135903 -1.33644 0
0.0680387 -1.34161 0
0.135903 -1.33644 0
0.0792937 -1.56354 0
0.158384 -1.55752 0
0.0792937 -1.56354 0
0.158384 -1.55752 0
0.0925184 -1.82431 0
0.184799 -1.81728 0
0.0925184 -1.82431 0
0.184799 -1.81728 0
0.108057 -2.13071 0
0.215838 -2.1225 0
0.108057 -2.13071 0
0.215838 -2.1225 0
0.126316 -2.49074 0
0.252307 -2.48114 0
0.126316 -2.49074 0
0.252307 -2.48114 0
0.147769 -2.91376 0
0.295159 -2.90254 0
0.147769 -2.91376 0
0.295159 -2.90254 0
0.172977 -3.41082 0
0.345511 -3.39768 0
0.172977 -3.41082 0
0.345511 -3.39768 0
0.202597 -3.99487 0
0.404673 -3.97948 0
0.0101168 -0.0994869 0
0.0151428 -0.0988468 0
0.0105856 -0.104096 0
0.0158444 -0.103426 0
0.0105856 -0.104096 0
0.0158444 -0.103426 0
0.0111363 -0.109512 0
0.0166687 -0.108808 0
0.0111363 -0.109512 0
0.0166687 -0.108808 0
0.0117834 -0.115876 0
0.0176373 -0.11513 0
0.0117834 -0.115876 0
0.0176373 -0.11513 0
0.0125438 -0.123353 0
0.0187754 -0.122559 0
0.0125438 -0.123353 0
0.0187754 -0.122559 0
0.0134372 -0.132139 0
0.0201127 -0.131289 0
0.0134372 -0.132139 0
0.0201127 -0.131289 0
0.014487 -0.142462 0
0.021684 -0.141546 0
0.014487 -0.142462 0
0.021684 -0.141546 0
0.0157205 -0.154592 0
0.0235303 -0.153598 0
0.0157205 -0.154592 0
0.0235303 -0.153598 0
0.0171699 -0.168845 0
0.0256997 -0.167759 0
0.0171699 -0.168845 0
0.0256997 -0.167759 0
0.0188729 -0.185592 0
0.0282487 -0.184398 0
0.0188729 -0.185592 0
0.0282487 -0.184398 0
0.0208739 -0.20527 0
0.0312438 -0.203949 0
0.0208739 -0.20527 0
0.0312438 -0.203949 0
0.0232251 -0.228391 0
0.0347631 -0.226922 0
0.0232251 -0.228391 0
0.0347631 -0.226922 0
0.0259878 -0.255559 0
0.0388982 -0.253914 0
0.0259878 -0.255559 0
0.0388982 -0.253914 0
0.0292339 -0.28748 0
0.043757 -0.285631 0
0.0292339 -0.28748 0
0.043757 -0.285631 0
0.0330481 -0.324988 0
0.0494661 -0.322897 0
0.0330481 -0.324988 0
0.0494661 -0.322897 0
0.0375298 -0.36906 0
0.0561742 -0.366686 0
0.0375298 -0.36906 0
0.0561742 -0.366686 0
0.0427958 -0.420845 0
0.0640563 -0.418137 0
0.0427958 -0.420845 0
0.0640563 -0.418137 0
0.0489833 -0.481692 0
0.0733177 -0.478593 0
0.0489833 -0.481692 0
0.0733177 -0.478593 0
0.0562536 -0.553187 0
0.0841999 -0.549628 0
0.0562536 -0.553187 0
0.0841999 -0.549628 0
0.0647963 -0.637194 0
0.0969865 -0.633094 0
0.0647963 -0.637194 0
0.0969865 -0.633094 0
0.0748339 -0.735902 0
0.112011 -0.731167 0
0.0748339 -0.735902 0
0.112011 -0.731167 0
0.0866281 -0.851884 0
0.129664 -0.846403 0
0.0866281 -0.851884 0
0.129664 -0.846403 0
0.100486 -0.988163 0
0.150407 -0.981805 0
0.100486 -0.988163 0
0.150407 -0.981805 0
0.11677 -1.14829 0
0.17478 -1.1409 0
0.11677 -1.14829 0
0.17478 -1.1409 0
0.135903 -1.33644 0
0.203418 -1.32784 0
0.135903 -1.33644 0
0.203418 -1.32784 0
0.158384 -1.55752 0
0.237068 -1.5475 0
0.158384 -1.55752 0
0.237068 -1.5475 0
0.184799 -1.81728 0
0.276606 -1.80559 0
0.184799 -1.81728 0
0.276606 -1.80559 0
0.215838 -2.1225 0
0.323064 -2.10885 0
0.215838 -2.1225 0
0.323064 -2.10885 0
0.252307 -2.48114 0
0.377651 -2.46518 0
0.252307 -2.48114 0
0.377651 -2.46518 0
0.295159 -2.90254 0
0.441792 -2.88387 0
0.295159 -2.90254 0
0.441792 -2.88387 0
0.345511 -3.39768 0
0.517157 -3.37582 0
0.345511 -3.39768 0
0.517157 -3.37582 0
0.404673 -3.97948 0
0.605711 -3.95387 0
0.0151428 -0.0988468 0
0.0201299 -0.097953 0
0.0158444 -0.103426 0
0.0210625 -0.102491 0
0.0158444 -0.103426 0
0.0210625 -0.102491 0
0.0166687 -0.108808 0
0.0221583 -0.107824 0
0.0166687 -0.108808 0
0.0221583 -0.107824 0
0.0176373 -0.11513 0
0.0234459 -0.114089 0
0.0176373 -0.11513 0
0.0234459 -0.114089 0
0.0187754 -0.122559 0
0.0249589 -0.121451 0
0.0187754 -0.122559 0
0.0249589 -0.121451 0
0.0201127 -0.131289 0
0.0267366 -0.130102 0
0.0201127 -0.131289 0
0.0267366 -0.130102 0
0.021684 -0.141546 0
0.0288254 -0.140266 0
0.021684 -0.141546 0
0.0288254 -0.140266 0
0.0235303 -0.153598 0
0.0312797 -0.152209 0
0.0235303 -0.153598 0
0.0312797 -0.152209 0
0.0256997 -0.167759 0
0.0341636 -0.166242 0
0.0256997 -0.167759 0
0.0341636 -0.166242 0
0.0282487 -0.184398 0
0.0375521 -0.182731 0
0.0282487 -0.184398 0
0.0375521 -0.182731 0
0.0312438 -0.203949 0
0.0415336 -0.202105 0
0.0312438 -0.203949 0
0.0415336 -0.202105 0
0.0347631 -0.226922 0
0.0462119 -0.22487 0
0.0347631 -0.226922 0
0.0462119 -0.22487 0
0.0388982 -0.253914 0
0.0517089 -0.251618 0
0.0388982 -0.253914 0
0.0517089 -0.251618 0
0.043757 -0.285631 0
0.0581678 -0.283048 0
0.043757 -0.285631 0
0.0581678 -0.283048 0
0.0494661 -0.322897 0
0.0657571 -0.319978 0
0.0494661 -0.322897 0
0.0657571 -0.319978 0
0.0561742 -0.366686 0
0.0746745 -0.36337 0
0.0561742 -0.366686 0
0.0746745 -0.36337 0
0.0640563 -0.418137 0
0.0851524 -0.414356 0
0.0640563 -0.418137 0
0.0851524 -0.414356 0
0.0733177 -0.478593 0
0.097464 -0.474265 0
0.0733177 -0.478593 0
0.097464 -0.474265 0
0.0841999 -0.549628 0
0.11193 -0.544658 0
0.0841999 -0.549628 0
0.11193 -0.544658 0
0.0969865 -0.633094 0
0.128928 -0.62737 0
0.0969865 -0.633094 0
0.128928 -0.62737 0
0.112011 -0.731167 0
0.1489 -0.724556 0
0.112011 -0.731167 0
0.1489 -0.724556 0
0.129664 -0.846403 0
0.172367 -0.838749 0
0.129664 -0.846403 0
0.172367 -0.838749 0
0.150407 -0.981805 0
0.199942 -0.972927 0
0.150407 -0.981805 0
0.199942 -0.972927 0
0.17478 -1.1409 0
0.232341 -1.13059 0
0.17478 -1.1409 0
0.232341 -1.13059 0
0.203418 -1.32784 0
0.270411 -1.31583 0
0.203418 -1.32784 0
0.270411 -1.31583 0
0.237068 -1.5475 0
0.315143 -1.5335 0
0.237068 -1.5475 0
0.315143 -1.5335 0
0.276606 -1.80559 0
0.367703 -1.78926 0
0.276606 -1.80559 0
0.367703 -1.78926 0
0.323064 -2.10885 0
0.42946 -2.08978 0
0.323064 -2.10885 0
0.42946 -2.08978 0
0.377651 -2.46518 0
0.502026 -2.44289 0
0.377651 -2.46518 0
0.502026 -2.44289 0
0.441792 -2.88387 0
0.58729 -2.85779 0
0.441792 -2.88387 0
0.58729 -2.85779 0
0.517157 -3.37582 0
0.687476 -3.3453 0
0.517157 -3.37582 0
0.687476 -3.3453 0
0.605711 -3.95387 0
0.805194 -3.91812 0
0.0201299 -0.097953 0
0.0250653 -0.0968077 0
0.0210625 -0.102491 0
0.0262265 -0.101293 0
0.0210625 -0.102491 0
0.0262265 -0.101293 0
0.0221583 -0.107824 0
0.0275911 -0.106563 0
0.0221583 -0.107824 0
0.0275911 -0.106563 0
0.0234459 -0.114089 0
0.0291944 -0.112755 0
0.0234459 -0.114089 0
0.0291944 -0.112755 0
0.0249589 -0.121451 0
0.0310782 -0.120031 0
0.0249589 -0.121451 0
0.0310782 -0.120031 0
0.0267366 -0.130102 0
0.0332918 -0.12858 0
0.0267366 -0.130102 0
0.0332918 -0.12858 0
0.0288254 -0.140266 0
0.0358927 -0.138626 0
0.0288254 -0.140266 0
0.0358927 -0.138626 0
0.0312797 -0.152209 0
0.0389488 -0.150429 0
0.0312797 -0.152209 0
0.0389488 -0.150429 0
0.0341636 -0.166242 0
0.0425397 -0.164298 0
0.0341636 -0.166242 0
0.0425397 -0.164298 0
0.0375521 -0.182731 0
0.046759 -0.180594 0
0.0375521 -0.182731 0
0.046759 -0.180594 0
0.0415336 -0.202105 0
0.0517167 -0.199742 0
0.0415336 -0.202105 0
0.0517167 -0.199742 0
0.0462119 -0.22487 0
0.057542 -0.22224 0
0.0462119 -0.22487 0
0.057542 -0.22224 0
0.0517089 -0.251618 0
0.0643867 -0.248676 0
0.0517089 -0.251618 0
0.0643867 -0.248676 0
0.0581678 -0.283048 0
0.0724293 -0.279738 0
0.0581678 -0.283048 0
0.0724293 -0.279738 0
0.0657571 -0.319978 0
0.0818793 -0.316236 0
0.0657571 -0.319978 0
0.0818793 -0.316236 0
0.0746745 -0.36337 0
0.092983 -0.359122 0
0.0746745 -0.36337 0
0.092983 -0.359122 0
0.0851524 -0.414356 0
0.10603 -0.409512 0
0.0851524 -0.414356 0
0.10603 -0.409512 0
0.097464 -0.474265 0
0.12136 -0.46872 0
0.097464 -0.474265 0
0.12136 -0.46872 0
0.11193 -0.544658 0
0.139373 -0.53829 0
0.11193 -0.544658 0
0.139373 -0.53829 0
0.128928 -0.62737 0
0.160538 -0.620034 0
0.128928 -0.62737 0
0.160538 -0.620034 0
0.1489 -0.724556 0
0.185407 -0.716084 0
0.1489 -0.724556 0
0.185407 -0.716084 0
0.172367 -0.838749 0
0.214628 -0.828943 0
0.172367 -0.838749 0
0.214628 -0.828943 0
0.199942 -0.972927 0
0.248963 -0.961551 0
0.199942 -0.972927 0
0.248963 -0.961551 0
0.232341 -1.13059 0
0.289306 -1.11737 0
0.232341 -1.13059 0
0.289306 -1.11737 0
0.270411 -1.31583 0
0.33671 -1.30045 0
0.270411 -1.31583 0
0.33671 -1.30045 0
0.315143 -1.5335 0
0.392409 -1.51557 0
0.315143 -1.5335 0
0.392409 -1.51557 0
0.367703 -1.78926 0
0.457855 -1.76834 0
0.367703 -1.78926 0
0.457855 -1.76834 0
0.42946 -2.08978 0
0.534755 -2.06534 0
0.42946 -2.08978 0
0.534755 -2.06534 0
0.502026 -2.44289 0
0.625112 -2.41432 0
0.502026 -2.44289 0
0.625112 -2.41432 0
0.58729 -2.85779 0
0.731281 -2.82437 0
0.58729 -2.85779 0
0.731281 -2.82437 0
0.687476 -3.3453 0
0.85603 -3.30618 0
0.687476 -3.3453 0
0.85603 -3.30618 0
0.805194 -3.91812 0
1.00261 -3.87231 0
0.0250653 -0.0968077 0
0.0299363 -0.0954139 0
0.0262265 -0.101293 0
0.0313233 -0.0998345 0
0.0262265 -0.101293 0
0.0313233 -0.0998345 0
0.0275911 -0.106563 0
0.032953 -0.105029 0
0.0275911 -0.106563 0
0.032953 -0.105029 0
0.0291944 -0.112755 0
0.0348678 -0.111132 0
0.0291944 -0.112755 0
0.0348678 -0.111132 0
0.0310782 -0.120031 0
0.0371178 -0.118303 0
0.0310782 -0.120031 0
0.0371178 -0.118303 0
0.0332918 -0.12858 0
0.0397615 -0.126729 0
0.0332918 -0.12858 0
0.0397615 -0.126729 0
0.0358927 -0.138626 0
0.0428679 -0.13663 0
0.0358927 -0.138626 0
0.0428679 -0.13663 0
0.0389488 -0.150429 0
0.0465179 -0.148263 0
0.0389488 -0.150429 0
0.0465179 -0.148263 0
0.0425397 -0.164298 0
0.0508067 -0.161933 0
0.0425397 -0.164298 0
0.0508067 -0.161933 0
0.046759 -0.180594 0
0.0558459 -0.177994 0
0.046759 -0.180594 0
0.0558459 -0.177994 0
0.0517167 -0.199742 0
0.0617671 -0.196866 0
0.0517167 -0.199742 0
0.0617671 -0.196866 0
0.057542 -0.22224 0
0.0687245 -0.219041 0
0.057542 -0.22224 0
0.0687245 -0.219041 0
0.0643867 -0.248676 0
0.0768993 -0.245096 0
0.0643867 -0.248676 0
0.0768993 -0.245096 0
0.0724293 -0.279738 0
0.0865048 -0.275711 0
0.0724293 -0.279738 0
0.0865048 -0.275711 0
0.0818793 -0.316236 0
0.0977913 -0.311683 0
0.0818793 -0.316236 0
0.0977913 -0.311683 0
0.092983 -0.359122 0
0.111053 -0.353951 0
0.092983 -0.359122 0
0.111053 -0.353951 0
0.10603 -0.409512 0
0.126635 -0.403616 0
0.10603 -0.409512 0
0.126635 -0.403616 0
0.12136 -0.46872 0
0.144945 -0.461972 0
0.12136 -0.46872 0
0.144945 -0.461972 0
0.139373 -0.53829 0
0.166458 -0.53054 0
0.139373 -0.53829 0
0.166458 -0.53054 0
0.160538 -0.620034 0
0.191736 -0.611107 0
0.160538 -0.620034 0
0.191736 -0.611107 0
0.185407 -0.716084 0
0.221438 -0.705774 0
0.185407 -0.716084 0
0.221438 -0.705774 0
0.214628 -0.828943 0
0.256338 -0.817008 0
0.214628 -0.828943 0
0.256338 -0.817008 0
0.248963 -0.961551 0
0.297345 -0.947707 0
0.248963 -0.961551 0
0.297345 -0.947707 0
0.289306 -1.11737 0
0.345529 -1.10128 0
0.289306 -1.11737 0
0.345529 -1.10128 0
0.33671 -1.30045 0
0.402144 -1.28173 0
0.33671 -1.30045 0
0.402144 -1.28173 0
0.392409 -1.51557 0
0.468668 -1.49375 0
0.392409 -1.51557 0
0.468668 -1.49375 0
0.457855 -1.76834 0
0.546832 -1.74288 0
0.457855 -1.76834 0
0.546832 -1.74288 0
0.534755 -2.06534 0
0.638676 -2.03561 0
0.534755 -2.06534 0
0.638676 -2.03561 0
0.625112 -2.41432 0
0.746593 -2.37956 0
0.625112 -2.41432 0
0.746593 -2.37956 0
0.731281 -2.82437 0
0.873395 -2.78371 0
0.731281 -2.82437 0
0.873395 -2.78371 0
0.85603 -3.30618 0
1.02239 -3.25858 0
0.85603 -3.30618 0
1.02239 -3.25858 0
1.00261 -3.87231 0
1.19745 -3.81656 0
0.0299363 -0.0954139 0
0.0347305 -0.0937752 0
0.0313233 -0.0998345 0
0.0363396 -0.0981199 0
0.0313233 -0.0998345 0
0.0363396 -0.0981199 0
0.032953 -0.105029 0
0.0382303 -0.103225 0
0.032953 -0.105029 0
0.0382303 -0.103225 0
0.0348678 -0.111132 0
0.0404518 -0.109223 0
0.0348678 -0.111132 0
0.0404518 -0.109223 0
0.0371178 -0.118303 0
0.0430621 -0.116271 0
0.0371178 -0.118303 0
0.0430621 -0.116271 0
0.0397615 -0.126729 0
0.0461292 -0.124553 0
0.0397615 -0.126729 0
0.0461292 -0.124553 0
0.0428679 -0.13663 0
0.0497331 -0.134283 0
0.0428679 -0.13663 0
0.0497331 -0.134283 0
0.0465179 -0.148263 0
0.0539676 -0.145717 0
0.0465179 -0.148263 0
0.0539676 -0.145717 0
0.0508067 -0.161933 0
0.0589432 -0.159151 0
0.0508067 -0.161933 0
0.0589432 -0.159151 0
0.0558459 -0.177994 0
0.0647895 -0.174937 0
0.0558459 -0.177994 0
0.0647895 -0.174937 0
0.0617671 -0.196866 0
0.0716589 -0.193485 0
0.0617671 -0.196866 0
0.0716589 -0.193485 0
0.0687245 -0.219041 0
0.0797305 -0.215279 0
0.0687245 -0.219041 0
0.0797305 -0.215279 0
0.0768993 -0.245096 0
0.0892145 -0.240886 0
0.0768993 -0.245096 0
0.0892145 -0.240886 0
0.0865048 -0.275711 0
0.100358 -0.270976 0
0.0865048 -0.275711 0
0.100358 -0.270976 0
0.0977913 -0.311683 0
0.113452 -0.30633 0
0.0977913 -0.311683 0
0.113452 -0.30633 0
0.111053 -0.353951 0
0.128838 -0.347872 0
0.111053 -0.353951 0
0.128838 -0.347872 0
0.126635 -0.403616 0
0.146916 -0.396684 0
0.126635 -0.403616 0
0.146916 -0.396684 0
0.144945 -0.461972 0
0.168157 -0.454037 0
0.144945 -0.461972 0
0.168157 -0.454037 0
0.166458 -0.53054 0
0.193116 -0.521428 0
0.166458 -0.53054 0
0.193116 -0.521428 0
0.191736 -0.611107 0
0.222442 -0.600612 0
0.191736 -0.611107 0
0.222442 -0.600612 0
0.221438 -0.705774 0
0.256901 -0.693653 0
0.221438 -0.705774 0
0.256901 -0.693653 0
0.256338 -0.817008 0
0.29739 -0.802976 0
0.256338 -0.817008 0
0.29739 -0.802976 0
0.297345 -0.947707 0
0.344964 -0.931431 0
0.297345 -0.947707 0
0.344964 -0.931431 0
0.345529 -1.10128 0
0.400864 -1.08237 0
0.345529 -1.10128 0
0.400864 -1.08237 0
0.402144 -1.28173 0
0.466546 -1.25971 0
0.402144 -1.28173 0
0.466546 -1.25971 0
0.468668 -1.49375 0
0.543723 -1.4681 0
0.468668 -1.49375 0
0.543723 -1.4681 0
0.546832 -1.74288 0
0.634406 -1.71295 0
0.546832 -1.74288 0
0.634406 -1.71295 0
0.638676 -2.03561 0
0.740958 -2.00065 0
0.638676 -2.03561 0
0.740958 -2.00065 0
0.746593 -2.37956 0
0.866157 -2.33869 0
0.746593 -2.37956 0
0.866157 -2.33869 0
0.873395 -2.78371 0
1.01327 -2.7359 0
0.873395 -2.78371 0
1.01327 -2.7359 0
1.02239 -3.25858 0
1.18612 -3.20262 0
1.02239 -3.25858 0
1.18612 -3.20262 0
1.19745 -3.81656 0
1.38922 -3.75101 0
0.0347305 -0.0937752 0
0.0394356 -0.0918958 0
0.0363396 -0.0981199 0
0.0412627 -0.0961534 0
0.0363396 -0.0981199 0
0.0412627 -0.0961534 0
0.0382303 -0.103225 0
0.0434095 -0.101156 0
0.0382303 -0.103225 0
0.0434095 -0.101156 0
0.0404518 -0.109223 0
0.045932 -0.107034 0
0.0404518 -0.109223 0
0.045932 -0.107034 0
0.0430621 -0.116271 0
0.0488959 -0.113941 0
0.0430621 -0.116271 0
0.0488959 -0.113941 0
0.0461292 -0.124553 0
0.0523785 -0.122056 0
0.0461292 -0.124553 0
0.0523785 -0.122056 0
0.0497331 -0.134283 0
0.0564706 -0.131592 0
0.0497331 -0.134283 0
0.0564706 -0.131592 0
0.0539676 -0.145717 0
0.0612788 -0.142797 0
0.0539676 -0.145717 0
0.0612788 -0.142797 0
0.0589432 -0.159151 0
0.0669284 -0.155962 0
0.0589432 -0.159151 0
0.0669284 -0.155962 0
0.0647895 -0.174937 0
0.0735668 -0.171431 0
0.0647895 -0.174937 0
0.0735668 -0.171431 0
0.0716589 -0.193485 0
0.0813668 -0.189607 0
0.0716589 -0.193485 0
0.0813668 -0.189607 0
0.0797305 -0.215279 0
0.0905318 -0.210964 0
0.0797305 -0.215279 0
0.0905318 -0.210964 0
0.0892145 -0.240886 0
0.101301 -0.236059 0
0.0892145 -0.240886 0
0.101301 -0.236059 0
0.100358 -0.270976 0
0.113954 -0.265545 0
0.100358 -0.270976 0
0.113954 -0.265545 0
0.113452 -0.30633 0
0.128822 -0.300191 0
0.113452 -0.30633 0
0.128822 -0.300191 0
0.128838 -0.347872 0
0.146292 -0.3409 0
0.128838 -0.347872 0
0.146292 -0.3409 0
0.146916 -0.396684 0
0.166819 -0.388733 0
0.146916 -0.396684 0
0.166819 -0.388733 0
0.168157 -0.454037 0
0.190938 -0.444938 0
0.168157 -0.454037 0
0.190938 -0.444938 0
0.193116 -0.521428 0
0.219278 -0.510977 0
0.193116 -0.521428 0
0.219278 -0.510977 0
0.222442 -0.600612 0
0.252577 -0.588574 0
0.222442 -0.600612 0
0.252577 -0.588574 0
0.256901 -0.693653 0
0.291704 -0.679751 0
0.256901 -0.693653 0
0.291704 -0.679751 0
0.29739 -0.802976 0
0.337678 -0.786883 0
0.29739 -0.802976 0
0.337678 -0.786883 0
0.344964 -0.931431 0
0.391697 -0.912763 0
0.344964 -0.931431 0
0.391697 -0.912763 0
0.400864 -1.08237 0
0.45517 -1.06067 0
0.400864 -1.08237 0
0.45517 -1.06067 0
0.466546 -1.25971 0
0.529751 -1.23447 0
0.466546 -1.25971 0
0.529751 -1.23447 0
0.543723 -1.4681 0
0.617383 -1.43867 0
0.543723 -1.4681 0
0.617383 -1.43867 0
0.634406 -1.71295 0
0.720351 -1.67862 0
0.634406 -1.71295 0
0.720351 -1.67862 0
0.740958 -2.00065 0
0.841339 -1.96055 0
0.740958 -2.00065 0
0.841339 -1.96055 0
0.866157 -2.33869 0
0.983499 -2.29182 0
0.866157 -2.33869 0
0.983499 -2.29182 0
1.01327 -2.7359 0
1.15054 -2.68107 0
1.01327 -2.7359 0
1.15054 -2.68107 0
1.18612 -3.20262 0
1.34681 -3.13843 0
1.18612 -3.20262 0
1.34681 -3.13843 0
1.38922 -3.75101 0
1.57742 -3.67583 0
0.0394356 -0.0918958 0
0.0440394 -0.0897805 0
0.0412627 -0.0961534 0
0.0460798 -0.09394 0
0.0412627 -0.0961534 0
0.0460798 -0.09394 0
0.0434095 -0.101156 0
0.0484772 -0.0988275 0
0.0434095 -0.101156 0
0.0484772 -0.0988275 0
0.045932 -0.107034 0
0.0512942 -0.10457 0
0.045932 -0.107034 0
0.0512942 -0.10457 0
0.0488959 -0.113941 0
0.0546042 -0.111318 0
0.0488959 -0.113941 0
0.0546042 -0.111318 0
0.0523785 -0.122056 0
0.0584934 -0.119247 0
0.0523785 -0.122056 0
0.0584934 -0.119247 0
0.0564706 -0.131592 0
0.0630632 -0.128563 0
0.0564706 -0.131592 0
0.0630632 -0.128563 0
0.0612788 -0.142797 0
0.0684327 -0.13951 0
0.0612788 -0.142797 0
0.0684327 -0.13951 0
0.0669284 -0.155962 0
0.0747419 -0.152372 0
0.0669284 -0.155962 0
0.0747419 -0.152372 0
0.0735668 -0.171431 0
0.0821552 -0.167485 0
0.0735668 -0.171431 0
0.0821552 -0.167485 0
0.0813668 -0.189607 0
0.0908658 -0.185243 0
0.0813668 -0.189607 0
0.0908658 -0.185243 0
0.0905318 -0.210964 0
0.101101 -0.206108 0
0.0905318 -0.210964 0
0.101101 -0.206108 0
0.101301 -0.236059 0
0.113127 -0.230625 0
0.101301 -0.236059 0
0.113127 -0.230625 0
0.113954 -0.265545 0
0.127258 -0.259432 0
0.113954 -0.265545 0
0.127258 -0.259432 0
0.128822 -0.300191 0
0.143861 -0.293281 0
0.128822 -0.300191 0
0.143861 -0.293281 0
0.146292 -0.3409 0
0.16337 -0.333053 0
0.146292 -0.3409 0
0.16337 -0.333053 0
0.166819 -0.388733 0
0.186294 -0.379785 0
0.166819 -0.388733 0
0.186294 -0.379785 0
0.190938 -0.444938 0
0.213228 -0.434696 0
0.190938 -0.444938 0
0.213228 -0.434696 0
0.219278 -0.510977 0
0.244877 -0.499215 0
0.219278 -0.510977 0
0.244877 -0.499215 0
0.252577 -0.588574 0
0.282064 -0.575026 0
0.252577 -0.588574 0
0.282064 -0.575026 0
0.291704 -0.679751 0
0.325758 -0.664104 0
0.291704 -0.679751 0
0.325758 -0.664104 0
0.337678 -0.786883 0
0.3771 -0.76877 0
0.337678 -0.786883 0
0.3771 -0.76877 0
0.391697 -0.912763 0
0.437425 -0.891752 0
0.391697 -0.912763 0
0.437425 -0.891752 0
0.45517 -1.06067 0
0.508308 -1.03626 0
0.45517 -1.06067 0
0.508308 -1.03626 0
0.529751 -1.23447 0
0.591596 -1.20605 0
0.529751 -1.23447 0
0.591596 -1.20605 0
0.617383 -1.43867 0
0.689459 -1.40556 0
0.617383 -1.43867 0
0.689459 -1.40556 0
0.720351 -1.67862 0
0.804447 -1.63998 0
0.720351 -1.67862 0
0.804447 -1.63998 0
0.841339 -1.96055 0
0.939559 -1.91542 0
0.841339 -1.96055 0
0.939559 -1.91542 0
0.983499 -2.29182 0
1.09832 -2.23907 0
0.983499 -2.29182 0
1.09832 -2.23907 0
1.15054 -2.68107 0
1.28485 -2.61935 0
1.15054 -2.68107 0
1.28485 -2.61935 0
1.34681 -3.13843 0
1.50404 -3.06619 0
1.34681 -3.13843 0
1.50404 -3.06619 0
1.57742 -3.67583 0
1.76158 -3.59122 0
0.0440394 -0.0897805 0
0.0485302 -0.0874347 0
0.0460798 -0.09394 0
0.0507786 -0.0914856 0
0.0460798 -0.09394 0
0.0507786 -0.0914856 0
0.0484772 -0.0988275 0
0.0534205 -0.0962454 0
0.0484772 -0.0988275 0
0.0534205 -0.0962454 0
0.0512942 -0.10457 0
0.0565248 -0.101838 0
0.0512942 -0.10457 0
0.0565248 -0.101838 0
0.0546042 -0.111318 0
0.0601722 -0.10841 0
0.0546042 -0.111318 0
0.0601722 -0.10841 0
0.0584934 -0.119247 0
0.064458 -0.116131 0
0.0584934 -0.119247 0
0.064458 -0.116131 0
0.0630632 -0.128563 0
0.0694938 -0.125204 0
0.0630632 -0.128563 0
0.0694938 -0.125204 0
0.0684327 -0.13951 0
0.0754109 -0.135864 0
0.0684327 -0.13951 0
0.0754109 -0.135864 0
0.0747419 -0.152372 0
0.0823634 -0.14839 0
0.0747419 -0.152372 0
0.0823634 -0.14839 0
0.0821552 -0.167485 0
0.0905327 -0.163109 0
0.0821552 -0.167485 0
0.0905327 -0.163109 0
0.0908658 -0.185243 0
0.100132 -0.180402 0
0.0908658 -0.185243 0
0.100132 -0.180402 0
0.101101 -0.206108 0
0.11141 -0.200723 0
0.101101 -0.206108 0
0.11141 -0.200723 0
0.113127 -0.230625 0
0.124663 -0.224599 0
0.113127 -0.230625 0
0.124663 -0.224599 0
0.127258 -0.259432 0
0.140234 -0.252654 0
0.127258 -0.259432 0
0.140234 -0.252654 0
0.143861 -0.293281 0
0.158531 -0.285618 0
0.143861 -0.293281 0
0.158531 -0.285618 0
0.16337 -0.333053 0
0.180029 -0.324351 0
0.16337 -0.333053 0
0.180029 -0.324351 0
0.186294 -0.379785 0
0.20529 -0.369862 0
0.186294 -0.379785 0
0.20529 -0.369862 0
0.213228 -0.434696 0
0.234972 -0.423338 0
0.213228 -0.434696 0
0.234972 -0.423338 0
0.244877 -0.499215 0
0.269847 -0.486172 0
0.244877 -0.499215 0
0.269847 -0.486172 0
0.282064 -0.575026 0
0.310826 -0.560002 0
0.282064 -0.575026 0
0.310826 -0.560002 0
0.325758 -0.664104 0
0.358977 -0.646752 0
0.325758 -0.664104 0
0.358977 -0.646752 0
0.3771 -0.76877 0
0.415553 -0.748683 0
0.3771 -0.76877 0
0.415553 -0.748683 0
0.437425 -0.891752 0
0.482031 -0.868453 0
0.437425 -0.891752 0
0.482031 -0.868453 0
0.508308 -1.03626 0
0.560141 -1.00918 0
0.508308 -1.03626 0
0.560141 -1.00918 0
0.591596 -1.20605 0
0.651922 -1.17454 0
0.591596 -1.20605 0
0.651922 -1.17454 0
0.689459 -1.40556 0
0.759764 -1.36883 0
0.689459 -1.40556 0
0.759764 -1.36883 0
0.804447 -1.63998 0
0.886478 -1.59713 0
0.804447 -1.63998 0
0.886478 -1.59713 0
0.939559 -1.91542 0
1.03537 -1.86537 0
0.939559 -1.91542 0
1.03537 -1.86537 0
1.09832 -2.23907 0
1.21031 -2.18057 0
1.09832 -2.23907 0
1.21031 -2.18057 0
1.28485 -2.61935 0
1.41587 -2.55091 0
1.28485 -2.61935 0
1.41587 -2.55091 0
1.50404 -3.06619 0
1.65741 -2.98607 0
1.50404 -3.06619 0
1.65741 -2.98607 0
1.76158 -3.59122 0
1.94121 -3.49739 0
0.0485302 -0.0874347 0
0.0528964 -0.0848644 0
0.0507786 -0.0914856 0
0.0553471 -0.0887962 0
0.0507786 -0.0914856 0
0.0553471 -0.0887962 0
0.0534205 -0.0962454 0
0.0582267 -0.0934161 0
0.0534205 -0.0962454 0
0.0582267 -0.0934161 0
0.0565248 -0.101838 0
0.0616102 -0.0988445 0
0.0565248 -0.101838 0
0.0616102 -0.0988445 0
0.0601722 -0.10841 0
0.0655859 -0.105223 0
0.0601722 -0.10841 0
0.0655859 -0.105223 0
0.064458 -0.116131 0
0.0702572 -0.112717 0
0.064458 -0.116131 0
0.0702572 -0.112717 0
0.0694938 -0.125204 0
0.0757461 -0.121523 0
0.0694938 -0.125204 0
0.0757461 -0.121523 0
0.0754109 -0.135864 0
0.0821955 -0.131871 0
0.0754109 -0.135864 0
0.0821955 -0.131871 0
0.0823634 -0.14839 0
0.0897736 -0.144028 0
0.0823634 -0.14839 0
0.0897736 -0.144028 0
0.0905327 -0.163109 0
0.0986778 -0.158314 0
0.0905327 -0.163109 0
0.0986778 -0.158314 0
0.100132 -0.180402 0
0.10914 -0.175099 0
0.100132 -0.180402 0
0.10914 -0.175099 0
0.11141 -0.200723 0
0.121434 -0.194822 0
0.11141 -0.200723 0
0.121434 -0.194822 0
0.124663 -0.224599 0
0.135878 -0.217997 0
0.124663 -0.224599 0
0.135878 -0.217997 0
0.140234 -0.252654 0
0.152851 -0.245227 0
0.140234 -0.252654 0
0.152851 -0.245227 0
0.158531 -0.285618 0
0.172794 -0.277222 0
0.158531 -0.285618 0
0.172794 -0.277222 0
0.180029 -0.324351 0
0.196226 -0.314816 0
0.180029 -0.324351 0
0.196226 -0.314816 0
0.20529 -0.369862 0
0.22376 -0.35899 0
0.20529 -0.369862 0
0.22376 -0.35899 0
0.234972 -0.423338 0
0.256112 -0.410893 0
0.234972 -0.423338 0
0.256112 -0.410893 0
0.269847 -0.486172 0
0.294125 -0.47188 0
0.269847 -0.486172 0
0.294125 -0.47188 0
0.310826 -0.560002 0
0.338791 -0.54354 0
0.310826 -0.560002 0
0.338791 -0.54354 0
0.358977 -0.646752 0
0.391273 -0.62774 0
0.358977 -0.646752 0
0.391273 -0.62774 0
0.415553 -0.748683 0
0.45294 -0.726675 0
0.415553 -0.748683 0
0.45294 -0.726675 0
0.482031 -0.868453 0
0.525398 -0.842923 0
0.482031 -0.868453 0
0.525398 -0.842923 0
0.560141 -1.00918 0
0.610537 -0.979516 0
0.560141 -1.00918 0
0.610537 -0.979516 0
0.651922 -1.17454 0
0.710575 -1.14001 0
0.651922 -1.17454 0
0.710575 -1.14001 0
0.759764 -1.36883 0
0.828119 -1.32859 0
0.759764 -1.36883 0
0.828119 -1.32859 0
0.886478 -1.59713 0
0.966234 -1.55018 0
0.886478 -1.59713 0
0.966234 -1.55018 0
1.03537 -1.86537 0
1.12852 -1.81054 0
1.03537 -1.86537 0
1.12852 -1.81054 0
1.21031 -2.18057 0
1.3192 -2.11647 0
1.21031 -2.18057 0
1.3192 -2.11647 0
1.41587 -2.55091 0
1.54326 -2.47593 0
1.41587 -2.55091 0
1.54326 -2.47593 0
1.65741 -2.98607 0
1.80652 -2.89829 0
1.65741 -2.98607 0
1.80652 -2.89829 0
1.94121 -3.49739 0
2.11586 -3.39458 0
0.0528964 -0.0848644 0
0.0571268 -0.0820763 0
0.0553471 -0.0887962 0
0.0597735 -0.085879 0
0.0553471 -0.0887962 0
0.0597735 -0.085879 0
0.0582267 -0.0934161 0
0.0628834 -0.0903471 0
0.0582267 -0.0934161 0
0.0628834 -0.0903471 0
0.0616102 -0.0988445 0
0.0665375 -0.0955971 0
0.0616102 -0.0988445 0
0.0665375 -0.0955971 0
0.0655859 -0.105223 0
0.0708311 -0.101766 0
0.0655859 -0.105223 0
0.0708311 -0.101766 0
0.0702572 -0.112717 0
0.0758761 -0.109014 0
0.0702572 -0.112717 0
0.0758761 -0.109014 0
0.0757461 -0.121523 0
0.0818039 -0.117531 0
0.0757461 -0.121523 0
0.0818039 -0.117531 0
0.0821955 -0.131871 0
0.0887692 -0.127538 0
0.0821955 -0.131871 0
0.0887692 -0.127538 0
0.0897736 -0.144028 0
0.0969533 -0.139297 0
0.0897736 -0.144028 0
0.0969533 -0.139297 0
0.0986778 -0.158314 0
0.10657 -0.153113 0
0.0986778 -0.158314 0
0.10657 -0.153113 0
0.10914 -0.175099 0
0.117869 -0.169347 0
0.10914 -0.175099 0
0.117869 -0.169347 0
0.121434 -0.194822 0
0.131145 -0.188422 0
0.121434 -0.194822 0
0.131145 -0.188422 0
0.135878 -0.217997 0
0.146745 -0.210835 0
0.135878 -0.217997 0
0.146745 -0.210835 0
0.152851 -0.245227 0
0.165075 -0.23717 0
0.152851 -0.245227 0
0.165075 -0.23717 0
0.172794 -0.277222 0
0.186613 -0.268114 0
0.172794 -0.277222 0
0.186613 -0.268114 0
0.196226 -0.314816 0
0.21192 -0.304474 0
0.196226 -0.314816 0
0.21192 -0.304474 0
0.22376 -0.35899 0
0.241655 -0.347196 0
0.22376 -0.35899 0
0.241655 -0.347196 0
0.256112 -0.410893 0
0.276595 -0.397394 0
0.256112 -0.410893 0
0.276595 -0.397394 0
0.294125 -0.47188 0
0.317648 -0.456377 0
0.294125 -0.47188 0
0.317648 -0.456377 0
0.338791 -0.54354 0
0.365886 -0.525683 0
0.338791 -0.54354 0
0.365886 -0.525683 0
0.391273 -0.62774 0
0.422566 -0.607116 0
0.391273 -0.62774 0
0.422566 -0.607116 0
0.45294 -0.726675 0
0.489164 -0.702801 0
0.45294 -0.726675 0
0.489164 -0.702801 0
0.525398 -0.842923 0
0.567417 -0.815231 0
0.525398 -0.842923 0
0.567417 -0.815231 0
0.610537 -0.979516 0
0.659365 -0.947335 0
0.610537 -0.979516 0
0.659365 -0.947335 0
0.710575 -1.14001 0
0.767403 -1.10256 0
0.710575 -1.14001 0
0.767403 -1.10256 0
0.828119 -1.32859 0
0.894348 -1.28495 0
0.828119 -1.32859 0
0.894348 -1.28495 0
0.966234 -1.55018 0
1.04351 -1.49925 0
0.966234 -1.55018 0
1.04351 -1.49925 0
1.12852 -1.81054 0
1.21877 -1.75106 0
1.12852 -1.81054 0
1.21877 -1.75106 0
1.3192 -2.11647 0
1.42471 -2.04693 0
1.3192 -2.11647 0
1.42471 -2.04693 0
1.54326 -2.47593 0
1.66668 -2.39458 0
1.54326 -2.47593 0
1.66668 -2.39458 0
1.80652 -2.89829 0
1.951 -2.80308 0
1.80652 -2.89829 0
1.951 -2.80308 0
2.11586 -3.39458 0
2.28507 -3.28305 0
0.0571268 -0.0820763 0
0.0612106 -0.0790776 0
0.0597735 -0.085879 0
0.0640465 -0.0827413 0
0.0597735 -0.085879 0
0.0640465 -0.0827413 0
0.0628834 -0.0903471 0
0.0673787 -0.0870461 0
0.0628834 -0.0903471 0
0.0673787 -0.0870461 0
0.0665375 -0.0955971 0
0.0712941 -0.0921043 0
0.0665375 -0.0955971 0
0.0712941 -0.0921043 0
0.0708311 -0.101766 0
0.0758946 -0.0980477 0
0.0708311 -0.101766 0
0.0758946 -0.0980477 0
0.0758761 -0.109014 0
0.0813002 -0.105031 0
0.0758761 -0.109014 0
0.0813002 -0.105031 0
0.0818039 -0.117531 0
0.0876518 -0.113237 0
0.0818039 -0.117531 0
0.0876518 -0.113237 0
0.0887692 -0.127538 0
0.0951149 -0.122878 0
0.0887692 -0.127538 0
0.0951149 -0.122878 0
0.0969533 -0.139297 0
0.103884 -0.134207 0
0.0969533 -0.139297 0
0.103884 -0.134207 0
0.10657 -0.153113 0
0.114188 -0.147519 0
0.10657 -0.153113 0
0.114188 -0.147519 0
0.117869 -0.169347 0
0.126295 -0.163159 0
0.117869 -0.169347 0
0.126295 -0.163159 0
0.131145 -0.188422 0
0.14052 -0.181537 0
0.131145 -0.188422 0
0.14052 -0.181537 0
0.146745 -0.210835 0
0.157236 -0.203132 0
0.146745 -0.210835 0
0.157236 -0.203132 0
0.165075 -0.23717 0
0.176876 -0.228505 0
0.165075 -0.23717 0
0.176876 -0.228505 0
0.186613 -0.268114 0
0.199953 -0.258318 0
0.186613 -0.268114 0
0.199953 -0.258318 0
0.21192 -0.304474 0
0.227069 -0.293349 0
0.21192 -0.304474 0
0.227069 -0.293349 0
0.241655 -0.347196 0
0.25893 -0.33451 0
0.241655 -0.347196 0
0.25893 -0.33451 0
0.276595 -0.397394 0
0.296367 -0.382875 0
0.276595 -0.397394 0
0.296367 -0.382875 0
0.317648 -0.456377 0
0.340356 -0.439703 0
0.317648 -0.456377 0
0.340356 -0.439703 0
0.365886 -0.525683 0
0.392042 -0.506476 0
0.365886 -0.525683 0
0.392042 -0.506476 0
0.422566 -0.607116 0
0.452773 -0.584935 0
0.422566 -0.607116 0
0.452773 -0.584935 0
0.489164 -0.702801 0
0.524132 -0.677123 0
0.489164 -0.702801 0
0.524132 -0.677123 0
0.567417 -0.815231 0
0.60798 -0.785445 0
0.567417 -0.815231 0
0.60798 -0.785445 0
0.659365 -0.947335 0
0.7065 -0.912723 0
0.659365 -0.947335 0
0.7065 -0.912723 0
0.767403 -1.10256 0
0.822262 -1.06227 0
0.767403 -1.10256 0
0.822262 -1.06227 0
0.894348 -1.28495 0
0.958282 -1.238 0
0.894348 -1.28495 0
0.958282 -1.238 0
1.04351 -1.49925 0
1.11811 -1.44447 0
1.04351 -1.49925 0
1.11811 -1.44447 0
1.21877 -1.75106 0
1.3059 -1.68708 0
1.21877 -1.75106 0
1.3059 -1.68708 0
1.42471 -2.04693 0
1.52655 -1.97214 0
1.42471 -2.04693 0
1.52655 -1.97214 0
1.66668 -2.39458 0
1.78582 -2.3071 0
1.66668 -2.39458 0
1.78582 -2.3071 0
1.951 -2.80308 0
2.09047 -2.70066 0
1.951 -2.80308 0
2.09047 -2.70066 0
2.28507 -3.28305 0
2.44842 -3.1631 0
0.0612106 -0.0790776 0
0.0651372 -0.0758758 0
0.0640465 -0.0827413 0
0.0681551 -0.0793912 0
0.0640465 -0.0827413 0
0.0681551 -0.0793912 0
0.0673787 -0.0870461 0
0.0717011 -0.0835217 0
0.0673787 -0.0870461 0
0.0717011 -0.0835217 0
0.0712941 -0.0921043 0
0.0758676 -0.0883751 0
0.0712941 -0.0921043 0
0.0758676 -0.0883751 0
0.0758946 -0.0980477 0
0.0807632 -0.0940779 0
0.0758946 -0.0980477 0
0.0807632 -0.0940779 0
0.0813002 -0.105031 0
0.0865156 -0.100779 0
0.0813002 -0.105031 0
0.0865156 -0.100779 0
0.0876518 -0.113237 0
0.0932746 -0.108652 0
0.0876518 -0.113237 0
0.0932746 -0.108652 0
0.0951149 -0.122878 0
0.101217 -0.117903 0
0.0951149 -0.122878 0
0.101217 -0.117903 0
0.103884 -0.134207 0
0.110548 -0.128773 0
0.103884 -0.134207 0
0.110548 -0.128773 0
0.114188 -0.147519 0
0.121513 -0.141546 0
0.114188 -0.147519 0
0.121513 -0.141546 0
0.126295 -0.163159 0
0.134397 -0.156553 0
0.126295 -0.163159 0
0.134397 -0.156553 0
0.14052 -0.181537 0
0.149535 -0.174187 0
0.14052 -0.181537 0
0.149535 -0.174187 0
0.157236 -0.203132 0
0.167322 -0.194907 0
0.157236 -0.203132 0
0.167322 -0.194907 0
0.176876 -0.228505 0
0.188222 -0.219253 0
0.176876 -0.228505 0
0.188222 -0.219253 0
0.199953 -0.258318 0
0.21278 -0.247859 0
0.199953 -0.258318 0
0.21278 -0.247859 0
0.227069 -0.293349 0
0.241636 -0.281472 0
0.227069 -0.293349 0
0.241636 -0.281472 0
0.25893 -0.33451 0
0.275541 -0.320966 0
0.25893 -0.33451 0
0.275541 -0.320966 0
0.296367 -0.382875 0
0.315379 -0.367373 0
0.296367 -0.382875 0
0.315379 -0.367373 0
0.340356 -0.439703 0
0.362189 -0.4219 0
0.340356 -0.439703 0
0.362189 -0.4219 0
0.392042 -0.506476 0
0.417191 -0.48597 0
0.392042 -0.506476 0
0.417191 -0.48597 0
0.452773 -0.584935 0
0.481818 -0.561251 0
0.452773 -0.584935 0
0.481818 -0.561251 0
0.524132 -0.677123 0
0.557756 -0.649707 0
0.524132 -0.677123 0
0.557756 -0.649707 0
0.60798 -0.785445 0
0.646982 -0.753643 0
0.60798 -0.785445 0
0.646982 -0.753643 0
0.7065 -0.912723 0
0.751822 -0.875768 0
0.7065 -0.912723 0
0.751822 -0.875768 0
0.822262 -1.06227 0
0.87501 -1.01926 0
0.822262 -1.06227 0
0.87501 -1.01926 0
0.958282 -1.238 0
1.01976 -1.18787 0
0.958282 -1.238 0
1.01976 -1.18787 0
1.11811 -1.44447 0
1.18983 -1.38599 0
1.11811 -1.44447 0
1.18983 -1.38599 0
1.3059 -1.68708 0
1.38967 -1.61877 0
1.3059 -1.68708 0
1.38967 -1.61877 0
1.52655 -1.97214 0
1.62448 -1.89229 0
1.52655 -1.97214 0
1.62448 -1.89229 0
1.78582 -2.3071 0
1.90038 -2.21368 0
1.78582 -2.3071 0
1.90038 -2.21368 0
2.09047 -2.70066 0
2.22457 -2.59132 0
2.09047 -2.70066 0
2.22457 -2.59132 0
2.44842 -3.1631 0
2.60549 -3.03503 0
0.0651372 -0.0758758 0
0.0688967 -0.0724793 0
0.0681551 -0.0793912 0
0.0720887 -0.0758373 0
0.0681551 -0.0793912 0
0.0720887 -0.0758373 0
0.0717011 -0.0835217 0
0.0758393 -0.0797829 0
0.0717011 -0.0835217 0
0.0758393 -0.0797829 0
0.0758676 -0.0883751 0
0.0802463 -0.0844191 0
0.0758676 -0.0883751 0
0.0802463 -0.0844191 0
0.0807632 -0.0940779 0
0.0854245 -0.0898665 0
0.0807632 -0.0940779 0
0.0854245 -0.0898665 0
0.0865156 -0.100779 0
0.0915089 -0.0962673 0
0.0865156 -0.100779 0
0.0915089 -0.0962673 0
0.0932746 -0.108652 0
0.0986581 -0.103788 0
0.0932746 -0.108652 0
0.0986581 -0.103788 0
0.101217 -0.117903 0
0.107058 -0.112625 0
0.101217 -0.117903 0
0.107058 -0.112625 0
0.110548 -0.128773 0
0.116929 -0.123009 0
0.110548 -0.128773 0
0.116929 -0.123009 0
0.121513 -0.141546 0
0.128526 -0.13521 0
0.121513 -0.141546 0
0.128526 -0.13521 0
0.134397 -0.156553 0
0.142153 -0.149545 0
0.134397 -0.156553 0
0.142153 -0.149545 0
0.149535 -0.174187 0
0.158165 -0.16639 0
0.149535 -0.174187 0
0.158165 -0.16639 0
0.167322 -0.194907 0
0.176979 -0.186182 0
0.167322 -0.194907 0
0.176979 -0.186182 0
0.188222 -0.219253 0
0.199086 -0.209438 0
0.188222 -0.219253 0
0.199086 -0.209438 0
0.21278 -0.247859 0
0.225061 -0.236764 0
0.21278 -0.247859 0
0.225061 -0.236764 0
0.241636 -0.281472 0
0.255582 -0.268872 0
0.241636 -0.281472 0
0.255582 -0.268872 0
0.275541 -0.320966 0
0.291444 -0.306599 0
0.275541 -0.320966 0
0.291444 -0.306599 0
0.315379 -0.367373 0
0.333581 -0.350927 0
0.315379 -0.367373 0
0.333581 -0.350927 0
0.362189 -0.4219 0
0.383093 -0.403014 0
0.362189 -0.4219 0
0.383093 -0.403014 0
0.417191 -0.48597 0
0.44127 -0.464215 0
0.417191 -0.48597 0
0.44127 -0.464215 0
0.481818 -0.561251 0
0.509627 -0.536127 0
0.481818 -0.561251 0
0.509627 -0.536127 0
0.557756 -0.649707 0
0.589947 -0.620624 0
0.557756 -0.649707 0
0.589947 -0.620624 0
0.646982 -0.753643 0
0.684323 -0.719907 0
0.646982 -0.753643 0
0.684323 -0.719907 0
0.751822 -0.875768 0
0.795214 -0.836565 0
0.751822 -0.875768 0
0.795214 -0.836565 0
0.87501 -1.01926 0
0.925512 -0.973638 0
0.87501 -1.01926 0
0.925512 -0.973638 0
1.01976 -1.18787 0
1.07861 -1.1347 0
1.01976 -1.18787 0
1.07861 -1.1347 0
1.18983 -1.38599 0
1.2585 -1.32394 0
1.18983 -1.38599 0
1.2585 -1.32394 0
1.38967 -1.61877 0
1.46988 -1.54631 0
1.38967 -1.61877 0
1.46988 -1.54631 0
1.62448 -1.89229 0
1.71824 -1.80759 0
1.62448 -1.89229 0
1.71824 -1.80759 0
1.90038 -2.21368 0
2.01007 -2.11459 0
1.90038 -2.21368 0
2.01007 -2.11459 0
2.22457 -2.59132 0
2.35296 -2.47532 0
2.22457 -2.59132 0
2.35296 -2.47532 0
2.60549 -3.03503 0
2.75587 -2.89917 0
0.0688967 -0.0724793 0
0.0724793 -0.0688967 0
0.0720887 -0.0758373 0
0.0758373 -0.0720887 0
0.0720887 -0.0758373 0
0.0758373 -0.0720887 0
0.0758393 -0.0797829 0
0.0797829 -0.0758393 0
0.0758393 -0.0797829 0
0.0797829 -0.0758393 0
0.0802463 -0.0844191 0
0.0844191 -0.0802463 0
0.0802463 -0.0844191 0
0.0844191 -0.0802463 0
0.0854245 -0.0898665 0
0.0898665 -0.0854245 0
0.0854245 -0.0898665 0
0.0898665 -0.0854245 0
0.0915089 -0.0962673 0
0.0962673 -0.0915089 0
0.0915089 -0.0962673 0
0.0962673 -0.0915089 0
0.0986581 -0.103788 0
0.103788 -0.0986581 0
0.0986581 -0.103788 0
0.103788 -0.0986581 0
0.107058 -0.112625 0
0.112625 -0.107058 0
0.107058 -0.112625 0
0.112625 -0.107058 0
0.116929 -0.123009 0
0.123009 -0.116929 0
0.116929 -0.123009 0
0.123009 -0.116929 0
0.128526 -0.13521 0
0.13521 -0.128526 0
0.128526 -0.13521 0
0.13521 -0.128526 0
0.142153 -0.149545 0
0.149545 -0.142153 0
0.142153 -0.149545 0
0.149545 -0.142153 0
0.158165 -0.16639 0
0.16639 -0.158165 0
0.158165 -0.16639 0
0.16639 -0.158165 0
0.176979 -0.186182 0
0.186182 -0.176979 0
0.176979 -0.186182 0
0.186182 -0.176979 0
0.199086 -0.209438 0
0.209438 -0.199086 0
0.199086 -0.209438 0
0.209438 -0.199086 0
0.225061 -0.236764 0
0.236764 -0.225061 0
0.225061 -0.236764 0
0.236764 -0.225061 0
0.255582 -0.268872 0
0.268872 -0.255582 0
0.255582 -0.268872 0
0.268872 -0.255582 0
0.291444 -0.306599 0
0.306599 -0.291444 0
0.291444 -0.306599 0
0.306599 -0.291444 0
0.333581 -0.350927 0
0.350927 -0.333581 0
0.333581 -0.350927 0
0.350927 -0.333581 0
0.383093 -0.403014 0
0.403014 -0.383093 0
0.383093 -0.403014 0
0.403014 -0.383093 0
0.44127 -0.464215 0
0.464215 -0.44127 0
0.44127 -0.464215 0
0.464215 -0.44127 0
0.509627 -0.536127 0
0.536127 -0.509627 0
0.509627 -0.536127 0
0.536127 -0.509627 0
0.589947 -0.620624 0
0.620624 -0.589947 0
0.589947 -0.620624 0
0.620624 -0.589947 0
0.684323 -0.719907 0
0.719907 -0.684323 0
0.684323 -0.719907 0
0.719907 -0.684323 0
0.795214 -0.836565 0
0.836565 -0.795214 0
0.795214 -0.836565 0
0.836565 -0.795214 0
0.925512 -0.973638 0
0.973638 -0.925512 0
0.925512 -0.973638 0
0.973638 -0.925512 0
1.07861 -1.1347 0
1.1347 -1.07861 0
1.07861 -1.1347 0
1.1347 -1.07861 0
1.2585 -1.32394 0
1.32394 -1.2585 0
1.2585 -1.32394 0
1.32394 -1.2585 0
1.46988 -1.54631 0
1.54631 -1.46988 0
1.46988 -1.54631 0
1.54631 -1.46988 0
1.71824 -1.80759 0
1.80759 -1.71824 0
1.71824 -1.80759 0
1.80759 -1.71824 0
2.01007 -2.11459 0
2.11459 -2.01007 0
2.01007 -2.11459 0
2.11459 -2.01007 0
2.35296 -2.47532 0
2.47532 -2.35296 0
2.35296 -2.47532 0
2.47532 -2.35296 0
2.75587 -2.89917 0
2.89917 -2.75587 0
0.0724793 -0.0688967 0
0.0758758 -0.0651372 0
0.0758373 -0.0720887 0
0.0793912 -0.0681551 0
0.0758373 -0.0720887 0
0.0793912 -0.0681551 0
0.0797829 -0.0758393 0
0.0835217 -0.0717011 0
0.0797829 -0.0758393 0
0.0835217 -0.0717011 0
0.0844191 -0.0802463 0
0.0883751 -0.0758676 0
0.0844191 -0.0802463 0
0.0883751 -0.0758676 0
0.0898665 -0.0854245 0
0.0940779 -0.0807632 0
0.0898665 -0.0854245 0
0.0940779 -0.0807632 0
0.0962673 -0.0915089 0
0.100779 -0.0865156 0
0.0962673 -0.0915089 0
0.100779 -0.0865156 0
0.103788 -0.0986581 0
0.108652 -0.0932746 0
0.103788 -0.0986581 0
0.108652 -0.0932746 0
0.112625 -0.107058 0
0.117903 -0.101217 0
0.112625 -0.107058 0
0.117903 -0.101217 0
0.123009 -0.116929 0
0.128773 -0.110548 0
0.123009 -0.116929 0
0.128773 -0.110548 0
0.13521 -0.128526 0
0.141546 -0.121513 0
0.13521 -0.128526 0
0.141546 -0.121513 0
0.149545 -0.142153 0
0.156553 -0.134397 0
0.149545 -0.142153 0
0.156553 -0.134397 0
0.16639 -0.158165 0
0.174187 -0.149535 0
0.16639 -0.158165 0
0.174187 -0.149535 0
0.186182 -0.176979 0
0.194907 -0.167322 0
0.186182 -0.176979 0
0.194907 -0.167322 0
0.209438 -0.199086 0
0.219253 -0.188222 0
0.209438 -0.199086 0
0.219253 -0.188222 0
0.236764 -0.225061 0
0.247859 -0.21278 0
0.236764 -0.225061 0
0.247859 -0.21278 0
0.268872 -0.255582 0
0.281472 -0.241636 0
0.268872 -0.255582 0
0.281472 -0.241636 0
0.306599 -0.291444 0
0.320966 -0.275541 0
0.306599 -0.291444 0
0.320966 -0.275541 0
0.350927 -0.333581 0
0.367373 -0.315379 0
0.350927 -0.333581 0
0.367373 -0.315379 0
0.403014 -0.383093 0
0.4219 -0.362189 0
0.403014 -0.383093 0
0.4219 -0.362189 0
0.464215 -0.44127 0
0.48597 -0.417191 0
0.464215 -0.44127 0
0.48597 -0.417191 0
0.536127 -0.509627 0
0.561251 -0.481818 0
0.536127 -0.509627 0
0.561251 -0.481818 0
0.620624 -0.589947 0
0.649707 -0.557756 0
0.620624 -0.589947 0
0.649707 -0.557756 0
0.719907 -0.684323 0
0.753643 -0.646982 0
0.719907 -0.684323 0
0.753643 -0.646982 0
0.836565 -0.795214 0
0.875768 -0.751822 0
0.836565 -0.795214 0
0.875768 -0.751822 0
0.973638 -0.925512 0
1.01926 -0.87501 0
0.973638 -0.925512 0
1.01926 -0.87501 0
1.1347 -1.07861 0
1.18787 -1.01976 0
1.1347 -1.07861 0
1.18787 -1.01976 0
1.32394 -1.2585 0
1.38599 -1.18983 0
1.32394 -1.2585 0
1.38599 -1.18983 0
1.54631 -1.46988 0
1.61877 -1.38967 0
1.54631 -1.46988 0
1.61877 -1.38967 0
1.80759 -1.71824 0
1.89229 -1.62448 0
1.80759 -1.71824 0
1.89229 -1.62448 0
2.11459 -2.01007 0
2.21368 -1.90038 0
2.11459 -2.01007 0
2.21368 -1.90038 0
2.47532 -2.35296 0
2.59132 -2.22457 0
2.47532 -2.35296 0
2.59132 -2.22457 0
2.89917 -2.75587 0
3.03503 -2.60549 0
0.0758758 -0.0651372 0
0.0790776 -0.0612106 0
0.0793912 -0.0681551 0
0.0827413 -0.0640465 0
0.0793912 -0.0681551 0
0.0827413 -0.0640465 0
0.0835217 -0.0717011 0
0.0870461 -0.0673787 0
0.0835217 -0.0717011 0
0.0870461 -0.0673787 0
0.0883751 -0.0758676 0
0.0921043 -0.0712941 0
0.0883751 -0.0758676 0
0.0921043 -0.0712941 0
0.0940779 -0.0807632 0
0.0980477 -0.0758946 0
0.0940779 -0.0807632 0
0.0980477 -0.0758946 0
0.100779 -0.0865156 0
0.105031 -0.0813002 0
0.100779 -0.0865156 0
0.105031 -0.0813002 0
0.108652 -0.0932746 0
0.113237 -0.0876518 0
0.108652 -0.0932746 0
0.113237 -0.0876518 0
0.117903 -0.101217 0
0.122878 -0.0951149 0
0.117903 -0.101217 0
0.122878 -0.0951149 0
0.128773 -0.110548 0
0.134207 -0.103884 0
0.128773 -0.110548 0
0.134207 -0.103884 0
0.141546 -0.121513 0
0.147519 -0.114188 0
0.141546 -0.121513 0
0.147519 -0.114188 0
0.156553 -0.134397 0
0.163159 -0.126295 0
0.156553 -0.134397 0
0.163159 -0.126295 0
0.174187 -0.149535 0
0.181537 -0.14052 0
0.174187 -0.149535 0
0.181537 -0.14052 0
0.194907 -0.167322 0
0.203132 -0.157236 0
0.194907 -0.167322 0
0.203132 -0.157236 0
0.219253 -0.188222 0
0.228505 -0.176876 0
0.219253 -0.188222 0
0.228505 -0.176876 0
0.247859 -0.21278 0
0.258318 -0.199953 0
0.247859 -0.21278 0
0.258318 -0.199953 0
0.281472 -0.241636 0
0.293349 -0.227069 0
0.281472 -0.241636 0
0.293349 -0.227069 0
0.320966 -0.275541 0
0.33451 -0.25893 0
0.320966 -0.275541 0
0.33451 -0.25893 0
0.367373 -0.315379 0
0.382875 -0.296367 0
0.367373 -0.315379 0
0.382875 -0.296367 0
0.4219 -0.362189 0
0.439703 -0.340355 0
0.4219 -0.362189 0
0.439703 -0.340355 0
0.48597 -0.417191 0
0.506476 -0.392042 0
0.48597 -0.417191 0
0.506476 -0.392042 0
0.561251 -0.481818 0
0.584935 -0.452773 0
0.561251 -0.481818 0
0.584935 -0.452773 0
0.649707 -0.557756 0
0.677123 -0.524132 0
0.649707 -0.557756 0
0.677123 -0.524132 0
0.753643 -0.646982 0
0.785445 -0.60798 0
0.753643 -0.646982 0
0.785445 -0.60798 0
0.875768 -0.751822 0
0.912723 -0.7065 0
0.875768 -0.751822 0
0.912723 -0.7065 0
1.01926 -0.87501 0
1.06227 -0.822262 0
1.01926 -0.87501 0
1.06227 -0.822262 0
1.18787 -1.01976 0
1.238 -0.958282 0
1.18787 -1.01976 0
1.238 -0.958282 0
1.38599 -1.18983 0
1.44447 -1.11811 0
1.38599 -1.18983 0
1.44447 -1.11811 0
1.61877 -1.38967 0
1.68708 -1.3059 0
1.61877 -1.38967 0
1.68708 -1.3059 0
1.89229 -1.62448 0
1.97214 -1.52655 0
1.89229 -1.62448 0
1.97214 -1.52655 0
2.21368 -1.90038 0
2.3071 -1.78582 0
2.21368 -1.90038 0
2.3071 -1.78582 0
2.59132 -2.22457 0
2.70066 -2.09047 0
2.59132 -2.22457 0
2.70066 -2.09047 0
3.03503 -2.60549 0
3.1631 -2.44842 0
0.0790776 -0.0612106 0
0.0820763 -0.0571268 0
0.0827413 -0.0640465 0
0.085879 -0.0597735 0
0.0827413 -0.0640465 0
0.085879 -0.0597735 0
0.0870461 -0.0673787 0
0.0903471 -0.0628834 0
0.0870461 -0.0673787 0
0.0903471 -0.0628834 0
0.0921043 -0.0712941 0
0.0955971 -0.0665375 0
0.0921043 -0.0712941 0
0.0955971 -0.0665375 0
0.0980477 -0.0758946 0
0.101766 -0.0708311 0
0.0980477 -0.0758946 0
0.101766 -0.0708311 0
0.105031 -0.0813002 0
0.109014 -0.0758761 0
0.105031 -0.0813002 0
0.109014 -0.0758761 0
0.113237 -0.0876518 0
0.117531 -0.0818039 0
0.113237 -0.0876518 0
0.117531 -0.0818039 0
0.122878 -0.0951149 0
0.127538 -0.0887692 0
0.122878 -0.0951149 0
0.127538 -0.0887692 0
0.134207 -0.103884 0
0.139297 -0.0969533 0
0.134207 -0.103884 0
0.139297 -0.0969533 0
0.147519 -0.114188 0
0.153113 -0.10657 0
0.147519 -0.114188 0
0.153113 -0.10657 0
0.163159 -0.126295 0
0.169347 -0.117869 0
0.163159 -0.126295 0
0.169347 -0.117869 0
0.181537 -0.14052 0
0.188422 -0.131145 0
0.181537 -0.14052 0
0.188422 -0.131145 0
0.203132 -0.157236 0
0.210835 -0.146745 0
0.203132 -0.157236 0
0.210835 -0.146745 0
0.228505 -0.176876 0
0.23717 -0.165075 0
0.228505 -0.176876 0
0.23717 -0.165075 0
0.258318 -0.199953 0
0.268114 -0.186613 0
0.258318 -0.199953 0
0.268114 -0.186613 0
0.293349 -0.227069 0
0.304474 -0.21192 0
0.293349 -0.227069 0
0.304474 -0.21192 0
0.33451 -0.25893 0
0.347196 -0.241655 0
0.33451 -0.25893 0
0.347196 -0.241655 0
0.382875 -0.296367 0
0.397394 -0.276595 0
0.382875 -0.296367 0
0.397394 -0.276595 0
0.439703 -0.340355 0
0.456377 -0.317648 0
0.439703 -0.340355 0
0.456377 -0.317648 0
0.506476 -0.392042 0
0.525683 -0.365886 0
0.506476 -0.392042 0
0.525683 -0.365886 0
0.584935 -0.452773 0
0.607116 -0.422566 0
0.584935 -0.452773 0
0.607116 -0.422566 0
0.677123 -0.524132 0
0.702801 -0.489164 0
0.677123 -0.524132 0
0.702801 -0.489164 0
0.785445 -0.60798 0
0.815231 -0.567417 0
0.785445 -0.60798 0
0.815231 -0.567417 0
0.912723 -0.7065 0
0.947335 -0.659365 0
0.912723 -0.7065 0
0.947335 -0.659365 0
1.06227 -0.822262 0
1.10256 -0.767403 0
1.06227 -0.822262 0
1.10256 -0.767403 0
1.238 -0.958282 0
1.28495 -0.894348 0
1.238 -0.958282 0
1.28495 -0.894348 0
1.44447 -1.11811 0
1.49925 -1.04351 0
1.44447 -1.11811 0
1.49925 -1.04351 0
1.68708 -1.3059 0
1.75106 -1.21877 0
1.68708 -1.3059 0
1.75106 -1.21877 0
1.97214 -1.52655 0
2.04693 -1.42471 0
1.97214 -1.52655 0
2.04693 -1.42471 0
2.3071 -1.78582 0
2.39458 -1.66668 0
2.3071 -1.78582 0
2.39458 -1.66668 0
2.70066 -2.09047 0
2.80308 -1.951 0
2.70066 -2.09047 0
2.80308 -1.951 0
3.1631 -2.44842 0
3.28305 -2.28507 0
0.0820763 -0.0571268 0
0.0848644 -0.0528964 0
0.085879 -0.0597735 0
0.0887962 -0.0553471 0
0.085879 -0.0597735 0
0.0887962 -0.0553471 0
0.0903471 -0.0628834 0
0.0934161 -0.0582267 0
0.0903471 -0.0628834 0
0.0934161 -0.0582267 0
0.0955971 -0.0665375 0
0.0988445 -0.0616102 0
0.0955971 -0.0665375 0
0.0988445 -0.0616102 0
0.101766 -0.0708311 0
0.105223 -0.0655859 0
0.101766 -0.0708311 0
0.105223 -0.0655859 0
0.109014 -0.0758761 0
0.112717 -0.0702572 0
0.109014 -0.0758761 0
0.112717 -0.0702572 0
0.117531 -0.0818039 0
0.121523 -0.0757461 0
0.117531 -0.0818039 0
0.121523 -0.0757461 0
0.127538 -0.0887692 0
0.131871 -0.0821955 0
0.127538 -0.0887692 0
0.131871 -0.0821955 0
0.139297 -0.0969533 0
0.144028 -0.0897736 0
0.139297 -0.0969533 0
0.144028 -0.0897736 0
0.153113 -0.10657 0
0.158314 -0.0986778 0
0.153113 -0.10657 0
0.158314 -0.0986778 0
0.169347 -0.117869 0
0.175099 -0.10914 0
0.169347 -0.117869 0
0.175099 -0.10914 0
0.188422 -0.131145 0
0.194822 -0.121434 0
0.188422 -0.131145 0
0.194822 -0.121434 0
0.210835 -0.146745 0
0.217997 -0.135878 0
0.210835 -0.146745 0
0.217997 -0.135878 0
0.23717 -0.165075 0
0.245227 -0.152851 0
0.23717 -0.165075 0
0.245227 -0.152851 0
0.268114 -0.186613 0
0.277222 -0.172794 0
0.268114 -0.186613 0
0.277222 -0.172794 0
0.304474 -0.21192 0
0.314816 -0.196226 0
0.304474 -0.21192 0
0.314816 -0.196226 0
0.347196 -0.241655 0
0.35899 -0.22376 0
0.347196 -0.241655 0
0.35899 -0.22376 0
0.397394 -0.276595 0
0.410893 -0.256112 0
0.397394 -0.276595 0
0.410893 -0.256112 0
0.456377 -0.317648 0
0.47188 -0.294125 0
0.456377 -0.317648 0
0.47188 -0.294125 0
0.525683 -0.365886 0
0.54354 -0.338791 0
0.525683 -0.365886 0
0.54354 -0.338791 0
0.607116 -0.422566 0
0.62774 -0.391273 0
0.607116 -0.422566 0
0.62774 -0.391273 0
0.702801 -0.489164 0
0.726675 -0.45294 0
0.702801 -0.489164 0
0.726675 -0.45294 0
0.815231 -0.567417 0
0.842924 -0.525398 0
0.815231 -0.567417 0
0.842924 -0.525398 0
0.947335 -0.659365 0
0.979516 -0.610537 0
0.947335 -0.659365 0
0.979516 -0.610537 0
1.10256 -0.767403 0
1.14001 -0.710575 0
1.10256 -0.767403 0
1.14001 -0.710575 0
1.28495 -0.894348 0
1.32859 -0.828119 0
1.28495 -0.894348 0
1.32859 -0.828119 0
1.49925 -1.04351 0
1.55018 -0.966234 0
1.49925 -1.04351 0
1.55018 -0.966234 0
1.75106 -1.21877 0
1.81054 -1.12852 0
1.75106 -1.21877 0
1.81054 -1.12852 0
2.04693 -1.42471 0
2.11647 -1.3192 0
2.04693 -1.42471 0
2.11647 -1.3192 0
2.39458 -1.66668 0
2.47593 -1.54326 0
2.39458 -1.66668 0
2.47593 -1.54326 0
2.80308 -1.951 0
2.89829 -1.80652 0
2.80308 -1.951 0
2.89829 -1.80652 0
3.28305 -2.28507 0
3.39458 -2.11586 0
0.0848644 -0.0528964 0
0.0874347 -0.0485302 0
0.0887962 -0.0553471 0
0.0914856 -0.0507786 0
0.0887962 -0.0553471 0
0.0914856 -0.0507786 0
0.0934161 -0.0582267 0
0.0962454 -0.0534205 0
0.0934161 -0.0582267 0
0.0962454 -0.0534205 0
0.0988445 -0.0616102 0
0.101838 -0.0565248 0
0.0988445 -0.0616102 0
0.101838 -0.0565248 0
0.105223 -0.0655859 0
0.10841 -0.0601722 0
0.105223 -0.0655859 0
0.10841 -0.0601722 0
0.112717 -0.0702572 0
0.116131 -0.064458 0
0.112717 -0.0702572 0
0.116131 -0.064458 0
0.121523 -0.0757461 0
0.125204 -0.0694938 0
0.121523 -0.0757461 0
0.125204 -0.0694938 0
0.131871 -0.0821955 0
0.135864 -0.0754109 0
0.131871 -0.0821955 0
0.135864 -0.0754109 0
0.144028 -0.0897736 0
0.14839 -0.0823634 0
0.144028 -0.0897736 0
0.14839 -0.0823634 0
0.158314 -0.0986778 0
0.163109 -0.0905327 0
0.158314 -0.0986778 0
0.163109 -0.0905327 0
0.175099 -0.10914 0
0.180402 -0.100132 0
0.175099 -0.10914 0
0.180402 -0.100132 0
0.194822 -0.121434 0
0.200723 -0.11141 0
0.194822 -0.121434 0
0.200723 -0.11141 0
0.217997 -0.135878 0
0.224599 -0.124663 0
0.217997 -0.135878 0
0.224599 -0.124663 0
0.245227 -0.152851 0
0.252654 -0.140234 0
0.245227 -0.152851 0
0.252654 -0.140234 0
0.277222 -0.172794 0
0.285618 -0.158531 0
0.277222 -0.172794 0
0.285618 -0.158531 0
0.314816 -0.196226 0
0.324351 -0.180029 0
0.314816 -0.196226 0
0.324351 -0.180029 0
0.35899 -0.22376 0
0.369862 -0.20529 0
0.35899 -0.22376 0
0.369862 -0.20529 0
0.410893 -0.256112 0
0.423338 -0.234972 0
0.410893 -0.256112 0
0.423338 -0.234972 0
0.47188 -0.294125 0
0.486172 -0.269847 0
0.47188 -0.294125 0
0.486172 -0.269847 0
0.54354 -0.338791 0
0.560002 -0.310826 0
0.54354 -0.338791 0
0.560002 -0.310826 0
0.62774 -0.391273 0
0.646752 -0.358977 0
0.62774 -0.391273 0
0.646752 -0.358977 0
0.726675 -0.45294 0
0.748683 -0.415553 0
0.726675 -0.45294 0
0.748683 -0.415553 0
0.842924 -0.525398 0
0.868453 -0.482031 0
0.842924 -0.525398 0
0.868453 -0.482031 0
0.979516 -0.610537 0
1.00918 -0.560141 0
0.979516 -0.610537 0
1.00918 -0.560141 0
1.14001 -0.710575 0
1.17454 -0.651922 0
1.14001 -0.710575 0
1.17454 -0.651922 0
1.32859 -0.828119 0
1.36883 -0.759764 0
1.32859 -0.828119 0
1.36883 -0.759764 0
1.55018 -0.966234 0
1.59713 -0.886478 0
1.55018 -0.966234 0
1.59713 -0.886478 0
1.81054 -1.12852 0
1.86537 -1.03537 0
1.81054 -1.12852 0
1.86537 -1.03537 0
2.11647 -1.3192 0
2.18057 -1.21031 0
2.11647 -1.3192 0
2.18057 -1.21031 0
2.47593 -1.54326 0
2.55091 -1.41587 0
2.47593 -1.54326 0
2.55091 -1.41587 0
2.89829 -1.80652 0
2.98607 -1.65741 0
2.89829 -1.80652 0
2.98607 -1.65741 0
3.39458 -2.11586 0
3.49739 -1.94121 0
0.0874347 -0.0485302 0
0.0897805 -0.0440394 0
0.0914856 -0.0507786 0
0.09394 -0.0460798 0
0.0914856 -0.0507786 0
0.09394 -0.0460798 0
0.0962454 -0.0534205 0
0.0988275 -0.0484772 0
0.0962454 -0.0534205 0
0.0988275 -0.0484772 0
0.101838 -0.0565248 0
0.10457 -0.0512942 0
0.101838 -0.0565248 0
0.10457 -0.0512942 0
0.10841 -0.0601722 0
0.111318 -0.0546042 0
0.10841 -0.0601722 0
0.111318 -0.0546042 0
0.116131 -0.064458 0
0.119247 -0.0584934 0
0.116131 -0.064458 0
0.119247 -0.0584934 0
0.125204 -0.0694938 0
0.128563 -0.0630632 0
0.125204 -0.0694938 0
0.128563 -0.0630632 0
0.135864 -0.0754109 0
0.13951 -0.0684327 0
0.135864 -0.0754109 0
0.13951 -0.0684327 0
0.14839 -0.0823634 0
0.152372 -0.0747419 0
0.14839 -0.0823634 0
0.152372 -0.0747419 0
0.163109 -0.0905327 0
0.167485 -0.0821552 0
0.163109 -0.0905327 0
0.167485 -0.0821552 0
0.180402 -0.100132 0
0.185243 -0.0908658 0
0.180402 -0.100132 0
0.185243 -0.0908658 0
0.200723 -0.11141 0
0.206108 -0.101101 0
0.200723 -0.11141 0
0.206108 -0.101101 0
0.224599 -0.124663 0
0.230625 -0.113127 0
0.224599 -0.124663 0
0.230625 -0.113127 0
0.252654 -0.140234 0
0.259432 -0.127258 0
0.252654 -0.140234 0
0.259432 -0.127258 0
0.285618 -0.158531 0
0.293281 -0.143861 0
0.285618 -0.158531 0
0.293281 -0.143861 0
0.324351 -0.180029 0
0.333053 -0.16337 0
0.324351 -0.180029 0
0.333053 -0.16337 0
0.369862 -0.20529 0
0.379785 -0.186294 0
0.369862 -0.20529 0
0.379785 -0.186294 0
0.423338 -0.234972 0
0.434696 -0.213228 0
0.423338 -0.234972 0
0.434696 -0.213228 0
0.486172 -0.269847 0
0.499215 -0.244877 0
0.486172 -0.269847 0
0.499215 -0.244877 0
0.560002 -0.310826 0
0.575026 -0.282064 0
0.560002 -0.310826 0
0.575026 -0.282064 0
0.646752 -0.358977 0
0.664104 -0.325758 0
0.646752 -0.358977 0
0.664104 -0.325758 0
0.748683 -0.415553 0
0.76877 -0.3771 0
0.748683 -0.415553 0
0.76877 -0.3771 0
0.868453 -0.482031 0
0.891752 -0.437425 0
0.868453 -0.482031 0
0.891752 -0.437425 0
1.00918 -0.560141 0
1.03626 -0.508308 0
1.00918 -0.560141 0
1.03626 -0.508308 0
1.17454 -0.651922 0
1.20605 -0.591596 0
1.17454 -0.651922 0
1.20605 -0.591596 0
1.36883 -0.759764 0
1.40556 -0.689458 0
1.36883 -0.759764 0
1.40556 -0.689458 0
1.59713 -0.886478 0
1.63998 -0.804447 0
1.59713 -0.886478 0
1.63998 -0.804447 0
1.86537 -1.03537 0
1.91542 -0.939559 0
1.86537 -1.03537 0
1.91542 -0.939559 0
2.18057 -1.21031 0
2.23907 -1.09832 0
2.18057 -1.21031 0
2.23907 -1.09832 0
2.55091 -1.41587 0
2.61935 -1.28485 0
2.55091 -1.41587 0
2.61935 -1.28485 0
2.98607 -1.65741 0
3.06619 -1.50404 0
2.98607 -1.65741 0
3.06619 -1.50404 0
3.49739 -1.94121 0
3.59122 -1.76158 0
0.0897805 -0.0440394 0
0.0918958 -0.0394356 0
0.09394 -0.0460798 0
0.0961534 -0.0412627 0
0.09394 -0.0460798 0
0.0961534 -0.0412627 0
0.0988275 -0.0484772 0
0.101156 -0.0434095 0
0.0988275 -0.0484772 0
0.101156 -0.0434095 0
0.10457 -0.0512942 0
0.107034 -0.045932 0
0.10457 -0.0512942 0
0.107034 -0.045932 0
0.111318 -0.0546042 0
0.113941 -0.0488959 0
0.111318 -0.0546042 0
0.113941 -0.0488959 0
0.119247 -0.0584934 0
0.122056 -0.0523785 0
0.119247 -0.0584934 0
0.122056 -0.0523785 0
0.128563 -0.0630632 0
0.131592 -0.0564706 0
0.128563 -0.0630632 0
0.131592 -0.0564706 0
0.13951 -0.0684327 0
0.142797 -0.0612788 0
0.13951 -0.0684327 0
0.142797 -0.0612788 0
0.152372 -0.0747419 0
0.155962 -0.0669284 0
0.152372 -0.0747419 0
0.155962 -0.0669284 0
0.167485 -0.0821552 0
0.171431 -0.0735668 0
0.167485 -0.0821552 0
0.171431 -0.0735668 0
0.185243 -0.0908658 0
0.189607 -0.0813668 0
0.185243 -0.0908658 0
0.189607 -0.0813668 0
0.206108 -0.101101 0
0.210964 -0.0905318 0
0.206108 -0.101101 0
0.210964 -0.0905318 0
0.230625 -0.113127 0
0.236059 -0.101301 0
0.230625 -0.113127 0
0.236059 -0.101301 0
0.259432 -0.127258 0
0.265545 -0.113954 0
0.259432 -0.127258 0
0.265545 -0.113954 0
0.293281 -0.143861 0
0.300191 -0.128822 0
0.293281 -0.143861 0
0.300191 -0.128822 0
0.333053 -0.16337 0
0.3409 -0.146292 0
0.333053 -0.16337 0
0.3409 -0.146292 0
0.379785 -0.186294 0
0.388733 -0.166819 0
0.379785 -0.186294 0
0.388733 -0.166819 0
0.434696 -0.213228 0
0.444938 -0.190938 0
0.434696 -0.213228 0
0.444938 -0.190938 0
0.499215 -0.244877 0
0.510977 -0.219278 0
0.499215 -0.244877 0
0.510977 -0.219278 0
0.575026 -0.282064 0
0.588574 -0.252577 0
0.575026 -0.282064 0
0.588574 -0.252577 0
0.664104 -0.325758 0
0.679751 -0.291704 0
0.664104 -0.325758 0
0.679751 -0.291704 0
0.76877 -0.3771 0
0.786883 -0.337678 0
0.76877 -0.3771 0
0.786883 -0.337678 0
0.891752 -0.437425 0
0.912763 -0.391697 0
0.891752 -0.437425 0
0.912763 -0.391697 0
1.03626 -0.508308 0
1.06067 -0.45517 0
1.03626 -0.508308 0
1.06067 -0.45517 0
1.20605 -0.591596 0
1.23447 -0.529751 0
1.20605 -0.591596 0
1.23447 -0.529751 0
1.40556 -0.689458 0
1.43867 -0.617383 0
1.40556 -0.689458 0
1.43867 -0.617383 0
1.63998 -0.804447 0
1.67862 -0.720351 0
1.63998 -0.804447 0
1.67862 -0.720351 0
1.91542 -0.939559 0
1.96055 -0.841339 0
1.91542 -0.939559 0
1.96055 -0.841339 0
2.23907 -1.09832 0
2.29182 -0.983499 0
2.23907 -1.09832 0
2.29182 -0.983499 0
2.61935 -1.28485 0
2.68107 -1.15054 0
2.61935 -1.28485 0
2.68107 -1.15054 0
3.06619 -1.50404 0
3.13843 -1.34681 0
3.06619 -1.50404 0
3.13843 -1.34681 0
3.59122 -1.76158 0
3.67583 -1.57742 0
0.0918958 -0.0394356 0
0.0937752 -0.0347305 0
0.0961534 -0.0412627 0
0.0981199 -0.0363396 0
0.0961534 -0.0412627 0
0.0981199 -0.0363396 0
0.101156 -0.0434095 0
0.103225 -0.0382303 0
0.101156 -0.0434095 0
0.103225 -0.0382303 0
0.107034 -0.045932 0
0.109223 -0.0404518 0
0.107034 -0.045932 0
0.109223 -0.0404518 0
0.113941 -0.0488959 0
0.116271 -0.0430621 0
0.113941 -0.0488959 0
0.116271 -0.0430621 0
0.122056 -0.0523785 0
0.124553 -0.0461292 0
0.122056 -0.0523785 0
0.124553 -0.0461292 0
0.131592 -0.0564706 0
0.134283 -0.0497331 0
0.131592 -0.0564706 0
0.134283 -0.0497331 0
0.142797 -0.0612788 0
0.145717 -0.0539676 0
0.142797 -0.0612788 0
0.145717 -0.0539676 0
0.155962 -0.0669284 0
0.159151 -0.0589432 0
0.155962 -0.0669284 0
0.159151 -0.0589432 0
0.171431 -0.0735668 0
0.174937 -0.0647895 0
0.171431 -0.0735668 0
0.174937 -0.0647895 0
0.189607 -0.0813668 0
0.193485 -0.0716589 0
0.189607 -0.0813668 0
0.193485 -0.0716589 0
0.210964 -0.0905318 0
0.215279 -0.0797305 0
0.210964 -0.0905318 0
0.215279 -0.0797305 0
0.236059 -0.101301 0
0.240886 -0.0892145 0
0.236059 -0.101301 0
0.240886 -0.0892145 0
0.265545 -0.113954 0
0.270976 -0.100358 0
0.265545 -0.113954 0
0.270976 -0.100358 0
0.300191 -0.128822 0
0.30633 -0.113452 0
0.300191 -0.128822 0
0.30633 -0.113452 0
0.3409 -0.146292 0
0.347872 -0.128838 0
0.3409 -0.146292 0
0.347872 -0.128838 0
0.388733 -0.166819 0
0.396684 -0.146916 0
0.388733 -0.166819 0
0.396684 -0.146916 0
0.444938 -0.190938 0
0.454037 -0.168157 0
0.444938 -0.190938 0
0.454037 -0.168157 0
0.510977 -0.219278 0
0.521428 -0.193116 0
0.510977 -0.219278 0
0.521428 -0.193116 0
0.588574 -0.252577 0
0.600612 -0.222442 0
0.588574 -0.252577 0
0.600612 -0.222442 0
0.679751 -0.291704 0
0.693653 -0.256901 0
0.679751 -0.291704 0
0.693653 -0.256901 0
0.786883 -0.337678 0
0.802976 -0.29739 0
0.786883 -0.337678 0
0.802976 -0.29739 0
0.912763 -0.391697 0
0.931431 -0.344964 0
0.912763 -0.391697 0
0.931431 -0.344964 0
1.06067 -0.45517 0
1.08237 -0.400864 0
1.06067 -0.45517 0
1.08237 -0.400864 0
1.23447 -0.529751 0
1.25971 -0.466546 0
1.23447 -0.529751 0
1.25971 -0.466546 0
1.43867 -0.617383 0
1.4681 -0.543723 0
1.43867 -0.617383 0
1.4681 -0.543723 0
1.67862 -0.720351 0
1.71295 -0.634406 0
1.67862 -0.720351 0
1.71295 -0.634406 0
1.96055 -0.841339 0
2.00065 -0.740958 0
1.96055 -0.841339 0
2.00065 -0.740958 0
2.29182 -0.983499 0
2.33869 -0.866157 0
2.29182 -0.983499 0
2.33869 -0.866157 0
2.68107 -1.15054 0
2.7359 -1.01327 0
2.68107 -1.15054 0
2.7359 -1.01327 0
3.13843 -1.34681 0
3.20262 -1.18612 0
3.13843 -1.34681 0
3.20262 -1.18612 0
3.67583 -1.57742 0
3.75101 -1.38922 0
0.0937752 -0.0347305 0
0.0954139 -0.0299363 0
0.0981199 -0.0363396 0
0.0998345 -0.0313233 0
0.0981199 -0.0363396 0
0.0998345 -0.0313233 0
0.103225 -0.0382303 0
0.105029 -0.032953 0
0.103225 -0.0382303 0
0.105029 -0.032953 0
0.109223 -0.0404518 0
0.111132 -0.0348678 0
0.109223 -0.0404518 0
0.111132 -0.0348678 0
0.116271 -0.0430621 0
0.118303 -0.0371178 0
0.116271 -0.0430621 0
0.118303 -0.0371178 0
0.124553 -0.0461292 0
0.126729 -0.0397615 0
0.124553 -0.0461292 0
0.126729 -0.0397615 0
0.134283 -0.0497331 0
0.13663 -0.0428679 0
0.134283 -0.0497331 0
0.13663 -0.0428679 0
0.145717 -0.0539676 0
0.148263 -0.0465179 0
0.145717 -0.0539676 0
0.148263 -0.0465179 0
0.159151 -0.0589432 0
0.161933 -0.0508067 0
0.159151 -0.0589432 0
0.161933 -0.0508067 0
0.174937 -0.0647895 0
0.177994 -0.0558459 0
0.174937 -0.0647895 0
0.177994 -0.0558459 0
0.193485 -0.0716589 0
0.196866 -0.0617671 0
0.193485 -0.0716589 0
0.196866 -0.0617671 0
0.215279 -0.0797305 0
0.219041 -0.0687245 0
0.215279 -0.0797305 0
0.219041 -0.0687245 0
0.240886 -0.0892145 0
0.245096 -0.0768993 0
0.240886 -0.0892145 0
0.245096 -0.0768993 0
0.270976 -0.100358 0
0.275711 -0.0865048 0
0.270976 -0.100358 0
0.275711 -0.0865048 0
0.30633 -0.113452 0
0.311683 -0.0977913 0
0.30633 -0.113452 0
0.311683 -0.0977913 0
0.347872 -0.128838 0
0.353951 -0.111053 0
0.347872 -0.128838 0
0.353951 -0.111053 0
0.396684 -0.146916 0
0.403616 -0.126635 0
0.396684 -0.146916 0
0.403616 -0.126635 0
0.454037 -0.168157 0
0.461972 -0.144945 0
0.454037 -0.168157 0
0.461972 -0.144945 0
0.521428 -0.193116 0
0.53054 -0.166458 0
0.521428 -0.193116 0
0.53054 -0.166458 0
0.600612 -0.222442 0
0.611107 -0.191736 0
0.600612 -0.222442 0
0.611107 -0.191736 0
0.693653 -0.256901 0
0.705774 -0.221438 0
0.693653 -0.256901 0
0.705774 -0.221438 0
0.802976 -0.29739 0
0.817008 -0.256338 0
0.802976 -0.29739 0
0.817008 -0.256338 0
0.931431 -0.344964 0
0.947707 -0.297345 0
0.931431 -0.344964 0
0.947707 -0.297345 0
1.08237 -0.400864 0
1.10128 -0.345529 0
1.08237 -0.400864 0
1.10128 -0.345529 0
1.25971 -0.466546 0
1.28173 -0.402144 0
1.25971 -0.466546 0
1.28173 -0.402144 0
1.4681 -0.543723 0
1.49375 -0.468668 0
1.4681 -0.543723 0
1.49375 -0.468668 0
1.71295 -0.634406 0
1.74288 -0.546832 0
1.71295 -0.634406 0
1.74288 -0.546832 0
2.00065 -0.740958 0
2.03561 -0.638676 0
2.00065 -0.740958 0
2.03561 -0.638676 0
2.33869 -0.866157 0
2.37956 -0.746593 0
2.33869 -0.866157 0
2.37956 -0.746593 0
2.7359 -1.01327 0
2.78371 -0.873395 0
2.7359 -1.01327 0
2.78371 -0.873395 0
3.20262 -1.18612 0
3.25858 -1.02239 0
3.20262 -1.18612 0
3.25858 -1.02239 0
3.75101 -1.38922 0
3.81656 -1.19745 0
0.0954139 -0.0299363 0
0.0968077 -0.0250653 0
0.0998345 -0.0313233 0
0.101293 -0.0262265 0
0.0998345 -0.0313233 0
0.101293 -0.0262265 0
0.105029 -0.032953 0
0.106563 -0.0275911 0
0.105029 -0.032953 0
0.106563 -0.0275911 0
0.111132 -0.0348678 0
0.112755 -0.0291944 0
0.111132 -0.0348678 0
0.112755 -0.0291944 0
0.118303 -0.0371178 0
0.120031 -0.0310782 0
0.118303 -0.0371178 0
0.120031 -0.0310782 0
0.126729 -0.0397615 0
0.12858 -0.0332918 0
0.126729 -0.0397615 0
0.12858 -0.0332918 0
0.13663 -0.0428679 0
0.138626 -0.0358927 0
0.13663 -0.0428679 0
0.138626 -0.0358927 0
0.148263 -0.0465179 0
0.150429 -0.0389488 0
0.148263 -0.0465179 0
0.150429 -0.0389488 0
0.161933 -0.0508067 0
0.164298 -0.0425397 0
0.161933 -0.0508067 0
0.164298 -0.0425397 0
0.177994 -0.0558459 0
0.180594 -0.046759 0
0.177994 -0.0558459 0
0.180594 -0.046759 0
0.196866 -0.0617671 0
0.199742 -0.0517167 0
0.196866 -0.0617671 0
0.199742 -0.0517167 0
0.219041 -0.0687245 0
0.22224 -0.057542 0
0.219041 -0.0687245 0
0.22224 -0.057542 0
0.245096 -0.0768993 0
0.248676 -0.0643867 0
0.245096 -0.0768993 0
0.248676 -0.0643867 0
0.275711 -0.0865048 0
0.279738 -0.0724293 0
0.275711 -0.0865048 0
0.279738 -0.0724293 0
0.311683 -0.0977913 0
0.316236 -0.0818793 0
0.311683 -0.0977913 0
0.316236 -0.0818793 0
0.353951 -0.111053 0
0.359122 -0.092983 0
0.353951 -0.111053 0
0.359122 -0.092983 0
0.403616 -0.126635 0
0.409512 -0.10603 0
0.403616 -0.126635 0
0.409512 -0.10603 0
0.461972 -0.144945 0
0.46872 -0.12136 0
0.461972 -0.144945 0
0.46872 -0.12136 0
0.53054 -0.166458 0
0.53829 -0.139373 0
0.53054 -0.166458 0
0.53829 -0.139373 0
0.611107 -0.191736 0
0.620034 -0.160538 0
0.611107 -0.191736 0
0.620034 -0.160538 0
0.705774 -0.221438 0
0.716084 -0.185407 0
0.705774 -0.221438 0
0.716084 -0.185407 0
0.817008 -0.256338 0
0.828943 -0.214628 0
0.817008 -0.256338 0
0.828943 -0.214628 0
0.947707 -0.297345 0
0.961551 -0.248963 0
0.947707 -0.297345 0
0.961551 -0.248963 0
1.10128 -0.345529 0
1.11737 -0.289306 0
1.10128 -0.345529 0
1.11737 -0.289306 0
1.28173 -0.402144 0
1.30045 -0.33671 0
1.28173 -0.402144 0
1.30045 -0.33671 0
1.49375 -0.468668 0
1.51557 -0.392409 0
1.49375 -0.468668 0
1.51557 -0.392409 0
1.74288 -0.546832 0
1.76834 -0.457855 0
1.74288 -0.546832 0
1.76834 -0.457855 0
2.03561 -0.638676 0
2.06534 -0.534755 0
2.03561 -0.638676 0
2.06534 -0.534755 0
2.37956 -0.746593 0
2.41432 -0.625112 0
2.37956 -0.746593 0
2.41432 -0.625112 0
2.78371 -0.873395 0
2.82437 -0.731281 0
2.78371 -0.873395 0
2.82437 -0.731281 0
3.25858 -1.02239 0
3.30618 -0.85603 0
3.25858 -1.02239 0
3.30618 -0.85603 0
3.81656 -1.19745 0
3.87231 -1.00261 0
0.0968077 -0.0250653 0
0.097953 -0.0201299 0
0.101293 -0.0262265 0
0.102491 -0.0210625 0
0.101293 -0.0262265 0
0.102491 -0.0210625 0
0.106563 -0.0275911 0
0.107824 -0.0221583 0
0.106563 -0.0275911 0
0.107824 -0.0221583 0
0.112755 -0.0291944 0
0.114089 -0.0234459 0
0.112755 -0.0291944 0
0.114089 -0.0234459 0
0.120031 -0.0310782 0
0.121451 -0.0249589 0
0.120031 -0.0310782 0
0.121451 -0.0249589 0
0.12858 -0.0332918 0
0.130102 -0.0267366 0
0.12858 -0.0332918 0
0.130102 -0.0267366 0
0.138626 -0.0358927 0
0.140266 -0.0288254 0
0.138626 -0.0358927 0
0.140266 -0.0288254 0
0.150429 -0.0389488 0
0.152209 -0.0312797 0
0.150429 -0.0389488 0
0.152209 -0.0312797 0
0.164298 -0.0425397 0
0.166242 -0.0341636 0
0.164298 -0.0425397 0
0.166242 -0.0341636 0
0.180594 -0.046759 0
0.182731 -0.0375521 0
0.180594 -0.046759 0
0.182731 -0.0375521 0
0.199742 -0.0517167 0
0.202105 -0.0415336 0
0.199742 -0.0517167 0
0.202105 -0.0415336 0
0.22224 -0.057542 0
0.22487 -0.0462119 0
0.22224 -0.057542 0
0.22487 -0.0462119 0
0.248676 -0.0643867 0
0.251618 -0.0517089 0
0.248676 -0.0643867 0
0.251618 -0.0517089 0
0.279738 -0.0724293 0
0.283048 -0.0581678 0
0.279738 -0.0724293 0
0.283048 -0.0581678 0
0.316236 -0.0818793 0
0.319978 -0.0657571 0
0.316236 -0.0818793 0
0.319978 -0.0657571 0
0.359122 -0.092983 0
0.36337 -0.0746745 0
0.359122 -0.092983 0
0.36337 -0.0746745 0
0.409512 -0.10603 0
0.414356 -0.0851524 0
0.409512 -0.10603 0
0.414356 -0.0851524 0
0.46872 -0.12136 0
0.474265 -0.097464 0
0.46872 -0.12136 0
0.474265 -0.097464 0
0.53829 -0.139373 0
0.544658 -0.11193 0
0.53829 -0.139373 0
0.544658 -0.11193 0
0.620034 -0.160538 0
0.62737 -0.128928 0
0.620034 -0.160538 0
0.62737 -0.128928 0
0.716084 -0.185407 0
0.724556 -0.1489 0
0.716084 -0.185407 0
0.724556 -0.1489 0
0.828943 -0.214628 0
0.838749 -0.172367 0
0.828943 -0.214628 0
0.838749 -0.172367 0
0.961551 -0.248963 0
0.972927 -0.199942 0
0.961551 -0.248963 0
0.972927 -0.199942 0
1.11737 -0.289306 0
1.13059 -0.232341 0
1.11737 -0.289306 0
1.13059 -0.232341 0
1.30045 -0.33671 0
1.31583 -0.270411 0
1.30045 -0.33671 0
1.31583 -0.270411 0
1.51557 -0.392409 0
1.5335 -0.315143 0
1.51557 -0.392409 0
1.5335 -0.315143 0
1.76834 -0.457855 0
1.78926 -0.367703 0
1.76834 -0.457855 0
1.78926 -0.367703 0
2.06534 -0.534755 0
2.08978 -0.42946 0
2.06534 -0.534755 0
2.08978 -0.42946 0
2.41432 -0.625112 0
2.44289 -0.502026 0
2.41432 -0.625112 0
2.44289 -0.502026 0
2.82437 -0.731281 0
2.85779 -0.58729 0
2.82437 -0.731281 0
2.85779 -0.58729 0
3.30618 -0.85603 0
3.3453 -0.687476 0
3.30618 -0.85603 0
3.3453 -0.687476 0
3.87231 -1.00261 0
3.91812 -0.805194 0
0.097953 -0.0201299 0
0.0988468 -0.0151428 0
0.102491 -0.0210625 0
0.103426 -0.0158444 0
0.102491 -0.0210625 0
0.103426 -0.0158444 0
0.107824 -0.0221583 0
0.108808 -0.0166687 0
0.107824 -0.0221583 0
0.108808 -0.0166687 0
0.114089 -0.0234459 0
0.11513 -0.0176373 0
0.114089 -0.0234459 0
0.11513 -0.0176373 0
0.121451 -0.0249589 0
0.122559 -0.0187754 0
0.121451 -0.0249589 0
0.122559 -0.0187754 0
0.130102 -0.0267366 0
0.131289 -0.0201127 0
0.130102 -0.0267366 0
0.131289 -0.0201127 0
0.140266 -0.0288254 0
0.141546 -0.021684 0
0.140266 -0.0288254 0
0.141546 -0.021684 0
0.152209 -0.0312797 0
0.153598 -0.0235303 0
0.152209 -0.0312797 0
0.153598 -0.0235303 0
0.166242 -0.0341636 0
0.167759 -0.0256997 0
0.166242 -0.0341636 0
0.167759 -0.0256997 0
0.182731 -0.0375521 0
0.184398 -0.0282487 0
0.182731 -0.0375521 0
0.184398 -0.0282487 0
0.202105 -0.0415336 0
0.203949 -0.0312438 0
0.202105 -0.0415336 0
0.203949 -0.0312438 0
0.22487 -0.0462119 0
0.226922 -0.0347631 0
0.22487 -0.0462119 0
0.226922 -0.0347631 0
0.251618 -0.0517089 0
0.253914 -0.0388982 0
0.251618 -0.0517089 0
0.253914 -0.0388982 0
0.283048 -0.0581678 0
0.285631 -0.043757 0
0.283048 -0.0581678 0
0.285631 -0.043757 0
0.319978 -0.0657571 0
0.322897 -0.0494661 0
0.319978 -0.0657571 0
0.322897 -0.0494661 0
0.36337 -0.0746745 0
0.366686 -0.0561742 0
0.36337 -0.0746745 0
0.366686 -0.0561742 0
0.414356 -0.0851524 0
0.418137 -0.0640563 0
0.414356 -0.0851524 0
0.418137 -0.0640563 0
0.474265 -0.097464 0
0.478593 -0.0733177 0
0.474265 -0.097464 0
0.478593 -0.0733177 0
0.544658 -0.11193 0
0.549628 -0.0841999 0
0.544658 -0.11193 0
0.549628 -0.0841999 0
0.62737 -0.128928 0
0.633094 -0.0969865 0
0.62737 -0.128928 0
0.633094 -0.0969865 0
0.724556 -0.1489 0
0.731167 -0.112011 0
0.724556 -0.1489 0
0.731167 -0.112011 0
0.838749 -0.172367 0
0.846403 -0.129664 0
0.838749 -0.172367 0
0.846403 -0.129664 0
0.972927 -0.199942 0
0.981805 -0.150407 0
0.972927 -0.199942 0
0.981805 -0.150407 0
1.13059 -0.232341 0
1.1409 -0.17478 0
1.13059 -0.232341 0
1.1409 -0.17478 0
1.31583 -0.270411 0
1.32784 -0.203418 0
1.31583 -0.270411 0
1.32784 -0.203418 0
1.5335 -0.315143 0
1.5475 -0.237068 0
1.5335 -0.315143 0
1.5475 -0.237068 0
1.78926 -0.367703 0
1.80559 -0.276606 0
1.78926 -0.367703 0
1.80559 -0.276606 0
2.08978 -0.42946 0
2.10885 -0.323064 0
2.08978 -0.42946 0
2.10885 -0.323064 0
2.44289 -0.502026 0
2.46518 -0.377651 0
2.44289 -0.502026 0
2.46518 -0.377651 0
2.85779 -0.58729 0
2.88387 -0.441792 0
2.85779 -0.58729 0
2.88387 -0.441792 0
3.3453 -0.687476 0
3.37582 -0.517157 0
3.3453 -0.687476 0
3.37582 -0.517157 0
3.91812 -0.805194 0
3.95387 -0.605711 0
0.0988468 -0.0151428 0
0.0994869 -0.0101168 0
0.103426 -0.0158444 0
0.104096 -0.0105856 0
0.103426 -0.0158444 0
0.104096 -0.0105856 0
0.108808 -0.0166687 0
0.109512 -0.0111363 0
0.108808 -0.0166687 0
0.109512 -0.0111363 0
0.11513 -0.0176373 0
0.115876 -0.0117834 0
0.11513 -0.0176373 0
0.115876 -0.0117834 0
0.122559 -0.0187754 0
0.123353 -0.0125438 0
0.122559 -0.0187754 0
0.123353 -0.0125438 0
0.131289 -0.0201127 0
0.132139 -0.0134372 0
0.131289 -0.0201127 0
0.132139 -0.0134372 0
0.141546 -0.021684 0
0.142462 -0.014487 0
0.141546 -0.021684 0
0.142462 -0.014487 0
0.153598 -0.0235303 0
0.154592 -0.0157205 0
0.153598 -0.0235303 0
0.154592 -0.0157205 0
0.167759 -0.0256997 0
0.168845 -0.0171699 0
0.167759 -0.0256997 0
0.168845 -0.0171699 0
0.184398 -0.0282487 0
0.185592 -0.0188729 0
0.184398 -0.0282487 0
0.185592 -0.0188729 0
0.203949 -0.0312438 0
0.20527 -0.0208739 0
0.203949 -0.0312438 0
0.20527 -0.0208739 0
0.226922 -0.0347631 0
0.228391 -0.0232251 0
0.226922 -0.0347631 0
0.228391 -0.0232251 0
0.253914 -0.0388982 0
0.255559 -0.0259878 0
0.253914 -0.0388982 0
0.255559 -0.0259878 0
0.285631 -0.043757 0
0.28748 -0.0292339 0
0.285631 -0.043757 0
0.28748 -0.0292339 0
0.322897 -0.0494661 0
0.324988 -0.0330481 0
0.322897 -0.0494661 0
0.324988 -0.0330481 0
0.366686 -0.0561742 0
0.36906 -0.0375298 0
0.366686 -0.0561742 0
0.36906 -0.0375298 0
0.418137 -0.0640563 0
0.420845 -0.0427958 0
0.418137 -0.0640563 0
0.420845 -0.0427958 0
0.478593 -0.0733177 0
0.481692 -0.0489833 0
0.478593 -0.0733177 0
0.481692 -0.0489833 0
0.549628 -0.0841999 0
0.553187 -0.0562536 0
0.549628 -0.0841999 0
0.553187 -0.0562536 0
0.633094 -0.0969865 0
0.637194 -0.0647963 0
0.633094 -0.0969865 0
0.637194 -0.0647963 0
0.731167 -0.112011 0
0.735902 -0.0748339 0
0.731167 -0.112011 0
0.735902 -0.0748339 0
0.846403 -0.129664 0
0.851884 -0.0866281 0
0.846403 -0.129664 0
0.851884 -0.0866281 0
0.981805 -0.150407 0
0.988163 -0.100486 0
0.981805 -0.150407 0
0.988163 -0.100486 0
1.1409 -0.17478 0
1.14829 -0.11677 0
1.1409 -0.17478 0
1.14829 -0.11677 0
1.32784 -0.203418 0
1.33644 -0.135903 0
1.32784 -0.203418 0
1.33644 -0.135903 0
1.5475 -0.237068 0
1.55752 -0.158384 0
1.5475 -0.237068 0
1.55752 -0.158384 0
1.80559 -0.276606 0
1.81728 -0.184799 0
1.80559 -0.276606 0
1.81728 -0.184799 0
2.10885 -0.323064 0
2.1225 -0.215838 0
2.10885 -0.323064 0
2.1225 -0.215838 0
2.46518 -0.377651 0
2.48114 -0.252307 0
2.46518 -0.377651 0
2.48114 -0.252307 0
2.88387 -0.441792 0
2.90254 -0.295159 0
2.88387 -0.441792 0
2.90254 -0.295159 0
3.37582 -0.517157 0
3.39768 -0.345511 0
3.37582 -0.517157 0
3.39768 -0.345511 0
3.95387 -0.605711 0
3.97948 -0.404673 0
0.0994869 -0.0101168 0
0.0998717 -0.00506492 0
0.104096 -0.0105856 0
0.104499 -0.00529958 0
0.104096 -0.0105856 0
0.104499 -0.00529958 0
0.109512 -0.0111363 0
0.109936 -0.0055753 0
0.109512 -0.0111363 0
0.109936 -0.0055753 0
0.115876 -0.0117834 0
0.116324 -0.00589928 0
0.115876 -0.0117834 0
0.116324 -0.00589928 0
0.123353 -0.0125438 0
0.12383 -0.00627995 0
0.123353 -0.0125438 0
0.12383 -0.00627995 0
0.132139 -0.0134372 0
0.13265 -0.00672725 0
0.132139 -0.0134372 0
0.13265 -0.00672725 0
0.142462 -0.014487 0
0.143013 -0.00725281 0
0.142462 -0.014487 0
0.143013 -0.00725281 0
0.154592 -0.0157205 0
0.15519 -0.00787036 0
0.154592 -0.0157205 0
0.15519 -0.00787036 0
0.168845 -0.0171699 0
0.169498 -0.00859597 0
0.168845 -0.0171699 0
0.169498 -0.00859597 0
0.185592 -0.0188729 0
0.18631 -0.00944856 0
0.185592 -0.0188729 0
0.18631 -0.00944856 0
0.20527 -0.0208739 0
0.206064 -0.0104504 0
0.20527 -0.0208739 0
0.206064 -0.0104504 0
0.228391 -0.0232251 0
0.229274 -0.0116275 0
0.228391 -0.0232251 0
0.229274 -0.0116275 0
0.255559 -0.0259878 0
0.256547 -0.0130106 0
0.255559 -0.0259878 0
0.256547 -0.0130106 0
0.28748 -0.0292339 0
0.288592 -0.0146357 0
0.28748 -0.0292339 0
0.288592 -0.0146357 0
0.324988 -0.0330481 0
0.326245 -0.0165453 0
0.324988 -0.0330481 0
0.326245 -0.0165453 0
0.36906 -0.0375298 0
0.370488 -0.018789 0
0.36906 -0.0375298 0
0.370488 -0.018789 0
0.420845 -0.0427958 0
0.422473 -0.0214254 0
0.420845 -0.0427958 0
0.422473 -0.0214254 0
0.481692 -0.0489833 0
0.483555 -0.0245231 0
0.481692 -0.0489833 0
0.483555 -0.0245231 0
0.553187 -0.0562536 0
0.555326 -0.028163 0
0.553187 -0.0562536 0
0.555326 -0.028163 0
0.637194 -0.0647963 0
0.639658 -0.0324398 0
0.637194 -0.0647963 0
0.639658 -0.0324398 0
0.735902 -0.0748339 0
0.738748 -0.0374651 0
0.735902 -0.0748339 0
0.738748 -0.0374651 0
0.851884 -0.0866281 0
0.855178 -0.0433697 0
0.851884 -0.0866281 0
0.855178 -0.0433697 0
0.988163 -0.100486 0
0.991984 -0.0503077 0
0.988163 -0.100486 0
0.991984 -0.0503077 0
1.14829 -0.11677 0
1.15273 -0.0584599 0
1.14829 -0.11677 0
1.15273 -0.0584599 0
1.33644 -0.135903 0
1.34161 -0.0680387 0
1.33644 -0.135903 0
1.34161 -0.0680387 0
1.55752 -0.158384 0
1.56354 -0.0792937 0
1.55752 -0.158384 0
1.56354 -0.0792937 0
1.81728 -0.184799 0
1.82431 -0.0925184 0
1.81728 -0.184799 0
1.82431 -0.0925184 0
2.1225 -0.215838 0
2.13071 -0.108057 0
2.1225 -0.215838 0
2.13071 -0.108057 0
2.48114 -0.252307 0
2.49074 -0.126316 0
2.48114 -0.252307 0
2.49074 -0.126316 0
2.90254 -0.295159 0
2.91376 -0.147769 0
2.90254 -0.295159 0
2.91376 -0.147769 0
3.39768 -0.345511 0
3.41082 -0.172977 0
3.39768 -0.345511 0
3.41082 -0.172977 0
3.97948 -0.404673 0
3.99487 -0.202597 0
0.0998717 -0.00506492 0
0.1 0 0
0.104499 -0.00529958 0
0.104633 0 0
0.104499 -0.00529958 0
0.104633 0 0
0.109936 -0.0055753 0
0.110077 0 0
0.109936 -0.0055753 0
0.110077 0 0
0.116324 -0.00589928 0
0.116473 0 0
0.116324 -0.00589928 0
0.116473 0 0
0.12383 -0.00627995 0
0.123989 0 0
0.12383 -0.00627995 0
0.123989 0 0
0.13265 -0.00672725 0
0.13282 0 0
0.13265 -0.00672725 0
0.13282 0 0
0.143013 -0.00725281 0
0.143197 0 0
0.143013 -0.00725281 0
0.143197 0 0
0.15519 -0.00787036 0
0.15539 0 0
0.15519 -0.00787036 0
0.15539 0 0
0.169498 -0.00859597 0
0.169716 0 0
0.169498 -0.00859597 0
0.169716 0 0
0.18631 -0.00944856 0
0.186549 0 0
0.18631 -0.00944856 0
0.186549 0 0
0.206064 -0.0104504 0
0.206328 0 0
0.206064 -0.0104504 0
0.206328 0 0
0.229274 -0.0116275 0
0.229569 0 0
0.229274 -0.0116275 0
0.229569 0 0
0.256547 -0.0130106 0
0.256876 0 0
0.256547 -0.0130106 0
0.256876 0 0
0.288592 -0.0146357 0
0.288963 0 0
0.288592 -0.0146357 0
0.288963 0 0
0.326245 -0.0165453 0
0.326664 0 0
0.326245 -0.0165453 0
0.326664 0 0
0.370488 -0.018789 0
0.370964 0 0
0.370488 -0.018789 0
0.370964 0 0
0.422473 -0.0214254 0
0.423015 0 0
0.422473 -0.0214254 0
0.423015 0 0
0.483555 -0.0245231 0
0.484176 0 0
0.483555 -0.0245231 0
0.484176 0 0
0.555326 -0.028163 0
0.55604 0 0
0.555326 -0.028163 0
0.55604 0 0
0.639658 -0.0324398 0
0.64048 0 0
0.639658 -0.0324398 0
0.64048 0 0
0.738748 -0.0374651 0
0.739697 0 0
0.738748 -0.0374651 0
0.739697 0 0
0.855178 -0.0433697 0
0.856277 0 0
0.855178 -0.0433697 0
0.856277 0 0
0.991984 -0.0503077 0
0.993259 0 0
0.991984 -0.0503077 0
0.993259 0 0
1.15273 -0.0584599 0
1.15421 0 0
1.15273 -0.0584599 0
1.15421 0 0
1.34161 -0.0680387 0
1.34333 0 0
1.34161 -0.0680387 0
1.34333 0 0
1.56354 -0.0792937 0
1.56555 0 0
1.56354 -0.0792937 0
1.56555 0 0
1.82431 -0.0925184 0
1.82665 0 0
1.82431 -0.0925184 0
1.82665 0 0
2.13071 -0.108057 0
2.13345 0 0
2.13071 -0.108057 0
2.13345 0 0
2.49074 -0.126316 0
2.49394 0 0
2.49074 -0.126316 0
2.49394 0 0
2.91376 -0.147769 0
2.91751 0 0
2.91376 -0.147769 0
2.91751 0 0
3.41082 -0.172977 0
3.41521 0 0
3.41082 -0.172977 0
3.41521 0 0
3.99487 -0.202597 0
4 0 0

CELLS 3844 19220
4 0 2 3 1
4 4 6 7 5
4 8 10 11 9
4 12 14 15 13
4 16 18 19 17
4 20 22 23 21
4 24 26 27 25
4 28 30 31 29
4 32 34 35 33
4 36 38 39 37
4 40 42 43 41
4 44 46 47 45
4 48 50 51 49
4 52 54 55 53
4 56 58 59 57
4 60 62 63 61
4 64 66 67 65
4 68 70 71 69
4 72 74 75 73
4 76 78 79 77
4 80 82 83 81
4 84 86 87 85
4 88 90 91 89
4 92 94 95 93
4 96 98 99 97
4 100 102 103 101
4 104 106 107 105
4 108 110 111 109
4 112 114 115 113
4 116 118 119 117
4 120 122 123 121
4 124 126 127 125
4 128 130 131 129
4 132 134 135 133
4 136 138 139 137
4 140 142 143 141
4 144 146 147 145
4 148 150 151 149
4 152 154 155 153
4 156 158 159 157
4 160 162 163 161
4 164 166 167 165
4 168 170 171 169
4 172 174 175 173
4 176 178 179 177
4 180 182 183 181
4 184 186 187 185
4 188 190 191 189
4 192 194 195 193
4 196 198 199 197
4 200 202 203 201
4 204 206 207 205
4 208 210 211 209
4 212 214 215 213
4 216 218 219 217
4 220 222 223 221
4 224 226 227 225
4 228 230 231 229
4 232 234 235 233
4 236 238 239 237
4 240 242 243 241
4 244 246 247 245
4 248 250 251 249
4 252 254 255 253
4 256 258 259 257
4 260 262 263 261
4 264 266 267 265
4 268 270 271 269
4 272 274 275 273
4 276 278 279 277
4 280 282 283 281
4 284 286 287 285
4 288 290 291 289
4 292 294 295 293
4 296 298 299 297
4 300 302 303 301
4 304 306 307 305
4 308 310 311 309
4 312 314 315 313
4 316 318 319 317
4 320 322 323 321
4 324 326 327 325
4 328 330 331 329
4 332 334 335 333
4 336 338 339 337
4 340 342 343 341
4 344 346 347 345
4 348 350 351 349
4 352 354 355 353
4 356 358 359 357
4 360 362 363 361
4 364 366 367 365
4 368 370 371 369
4 372 374 375 373
4 376 378 379 377
4 380 382 383 381
4 384 386 387 385
4 388 390 391 389
4 392 394 395 393
4 396 398 399 397
4 400 402 403 401
4 404 406 407 405
4 408 410 411 409
4 412 414 415 413
4 416 418 419 417
4 420 422 423 421
4 424 426 427 425
4 428 430 431 429
4 432 434 435 433
4 436 438 439 437
4 440 442 443 441
4 444 446 447 445
4 448 450 451 449
4 452 454 455 453
4 456 458 459 457
4 460 462 463 461
4 464 466 467 465
4 468 470 471 469
4 472 474 475 473
4 476 478 479 477
4 480 482 483 481
4 484 486 487 485
4 488 490 491 489
4 492 494 495 493
4 496 498 499 497
4 500 502 503 501
4 504 506 507 505
4 508 510 511 509
4 512 514 515 513
4 516 518 519 517
4 520 522 523 521
4 524 526 527 525
4 528 530 531 529
4 532 534 535 533
4 536 538 539 537
4 540 542 543 541
4 544 546 547 545
4 548 550 551 549
4 552 554 555 553
4 556 558 559 557
4 560 562 563 561
4 564 566 567 565
4 568 570 571 569
4 572 574 575 573
4 576 578 579 577
4 580 582 583 581
4 584 586 587 585
4 588 590 591 589
4 592 594 595 593
4 596 598 599 597
4 600 602 603 601
4 604 606 607 605
4 608 610 611 609
4 612 614 615 613
4 616 618 619 617
4 620 622 623 621
4 624 626 627 625
4 628 630 631 629
4 632 634 635 633
4 636 638 639 637
4 640 642 643 641
4 644 646 647 645
4 648 650 651 649
4 652 654 655 653
4 656 658 659 657
4 660 662 663 661
4 664 666 667 665
4 668 670 671 669
4 672 674 675 673
4 676 678 679 677
4 680 682 683 681
4 684 686 687 685
4 688 690 691 689
4 692 694 695 693
4 696 698 699 697
4 700 702 703 701
4 704 706 707 705
4 708 710 711 709
4 712 714 715 713
4 716 718 719 717
4 720 722 723 721
4 724 726 727 725
4 728 730 731 729
4 732 734 735 733
4 736 738 739 737
4 740 742 743 741
4 744 746 747 745
4 748 750 751 749
4 752 754 755 753
4 756 758 759 757
4 760 762 763 761
4 764 766 767 765
4 768 770 771 769
4 772 774 775 773
4 776 778 779 777
4 780 782 783 781
4 784 786 787 785
4 788 790 791 789
4 792 794 795 793
4 796 798 799 797
4 800 802 803 801
4 804 806 807 805
4 808 810 811 809
4 812 814 815 813
4 816 818 819 817
4 820 822 823 821
4 824 826 827 825
4 828 830 831 829
4 832 834 835 833
4 836 838 839 837
4 840 842 843 841
4 844 846 847 845
4 848 850 851 849
4 852 854 855 853
4 856 858 859 857
4 860 862 863 861
4 864 866 867 865
4 868 870 871 869
4 872 874 875 873
4 876 878 879 877
4 880 882 883 881
4 884 886 887 885
4 888 890 891 889
4 892 894 895 893
4 896 898 899 897
4 900 902 903 901
4 904 906 907 905
4 908 910 911 909
4 912 914 915 913
4 916 918 919 917
4 920 922 923 921
4 924 926 927 925
4 928 930 931 929
4 932 934 935 933
4 936 938 939 937
4 940 942 943 941
4 944 946 947 945
4 948 950 951 949
4 952 954 955 953
4 956 958 959 957
4 960 962 963 961
4 964 966 967 965
4 968 970 971 969
4 972 974 975 973
4 976 978 979 977
4 980 982 983 981
4 984 986 987 985
4 988 990 991 989
4 992 994 995 993
4 996 998 999 997
4 1000 1002 1003 1001
4 1004 1006 1007 1005
4 1008 1010 1011 1009
4 1012 1014 1015 1013
4 1016 1018 1019 1017
4 1020 1022 1023 1021
4 1024 1026 1027 1025
4 1028 1030 1031 1029
4 1032 1034 1035 1033
4 1036 1038 1039 1037
4 1040 1042 1043 1041
4 1044 1046 1047 1045
4 1048 1050 1051 1049
4 1052 1054 1055 1053
4 1056 1058 1059 1057
4 1060 1062 1063 1061
4 1064 1066 1067 1065
4 1068 1070 1071 1069
4 1072 1074 1075 1073
4 1076 1078 1079 1077
4 1080 1082 1083 1081
4 1084 1086 1087 1085
4 1088 1090 1091 1089
4 1092 1094 1095 1093
4 1096 1098 1099 1097
4 1100 1102 1103 1101
4 1104 1106 1107 1105
4 1108 1110 1111 1109
4 1112 1114 1115 1113
4 1116 1118 1119 1117
4 1120 1122 1123 1121
4 1124 1126 1127 1125
4 1128 1130 1131 1129
4 1132 1134 1135 1133
4 1136 1138 1139 1137
4 1140 1142 1143 1141
4 1144 1146 1147 1145
4 1148 1150 1151 1149
4 1152 1154 1155 1153
4 1156 1158 1159 1157
4 1160 1162 1163 1161
4 1164 1166 1167 1165
4 1168 1170 1171 1169
4 1172 1174 1175 1173
4 1176 1178 1179 1177
4 1180 1182 1183 1181
4 1184 1186 1187 1185
4 1188 1190 1191 1189
4 1192 1194 1195 1193
4 1196 1198 1199 1197
4 1200 1202 1203 1201
4 1204 1206 1207 1205
4 1208 1210 1211 1209
4 1212 1214 1215 1213
4 1216 1218 1219 1217
4 1220 1222 1223 1221
4 1224 1226 1227 1225
4 1228 1230 1231 1229
4 1232 1234 1235 1233
4 1236 1238 1239 1237
4 1240 1242 1243 1241
4 1244 1246 1247 1245
4 1248 1250 1251 1249
4 1252 1254 1255 1253
4 1256 1258 1259 1257
4 1260 1262 1263 1261
4 1264 1266 1267 1265
4 1268 1270 1271 1269
4 1272 1274 1275 1273
4 1276 1278 1279 1277
4 1280 1282 1283 1281
4 1284 1286 1287 1285
4 1288 1290 1291 1289
4 1292 1294 1295 1293
4 1296 1298 1299 1297
4 1300 1302 1303 1301
4 1304 1306 1307 1305
4 1308 1310 1311 1309
4 1312 1314 1315 1313
4 1316 1318 1319 1317
4 1320 1322 1323 1321
4 1324 1326 1327 1325
4 1328 1330 1331 1329
4 1332 1334 1335 1333
4 1336 1338 1339 1337
4 1340 1342 1343 1341
4 1344 1346 1347 1345
4 1348 1350 1351 1349
4 1352 1354 1355 1353
4 1356 1358 1359 1357
4 1360 1362 1363 1361
4 1364 1366 1367 1365
4 1368 1370 1371 1369
4 1372 1374 1375 1373
4 1376 1378 1379 1377
4 1380 1382 1383 1381
4 1384 1386 1387 1385
4 1388 1390 1391 1389
4 1392 1394 1395 1393
4 1396 1398 1399 1397
4 1400 1402 1403 1401
4 1404 1406 1407 1405
4 1408 1410 1411 1409
4 1412 1414 1415 1413
4 1416 1418 1419 1417
4 1420 1422 1423 1421
4 1424 1426 1427 1425
4 1428 1430 1431 1429
4 1432 1434 1435 1433
4 1436 1438 1439 1437
4 1440 1442 1443 1441
4 1444 1446 1447 1445
4 1448 1450 1451 1449
4 1452 1454 1455 1453
4 1456 1458 1459 1457
4 1460 1462 1463 1461
4 1464 1466 1467 1465
4 1468 1470 1471 1469
4 1472 1474 1475 1473
4 1476 1478 1479 1477
4 1480 1482 1483 1481
4 1484 1486 1487 1485
4 1488 1490 1491 1489
4 1492 1494 1495 1493
4 1496 1498 1499 1497
4 1500 1502 1503 1501
4 1504 1506 1507 1505
4 1508 1510 1511 1509
4 1512 1514 1515 1513
4 1516 1518 1519 1517
4 1520 1522 1523 1521
4 1524 1526 1527 1525
4 1528 1530 1531 1529
4 1532 1534 1535 1533
4 1536 1538 1539 1537
4 1540 1542 1543 1541
4 1544 1546 1547 1545
4 1548 1550 1551 1549
4 1552 1554 1555 1553
4 1556 1558 1559 1557
4 1560 1562 1563 1561
4 1564 1566 1567 1565
4 1568 1570 1571 1569
4 1572 1574 1575 1573
4 1576 1578 1579 1577
4 1580 1582 1583 1581
4 1584 1586 1587 1585
4 1588 1590 1591 1589
4 1592 1594 1595 1593
4 1596 1598 1599 1597
4 1600 1602 1603 1601
4 1604 1606 1607 1605
4 1608 1610 1611 1609
4 1612 1614 1615 1613
4 1616 1618 1619 1617
4 1620 1622 1623 1621
4 1624 1626 1627 1625
4 1628 1630 1631 1629
4 1632 1634 1635 1633
4 1636 1638 1639 1637
4 1640 1642 1643 1641
4 1644 1646 1647 1645
4 1648 1650 1651 1649
4 1652 1654 1655 1653
4 1656 1658 1659 1657
4 1660 1662 1663 1661
4 1664 1666 1667 1665
4 1668 1670 1671 1669
4 1672 1674 1675 1673
4 1676 1678 1679 1677
4 1680 1682 1683 1681
4 1684 1686 1687 1685
4 1688 1690 1691 1689
4 1692 1694 1695 1693
4 1696 1698 1699 1697
4 1700 1702 1703 1701
4 1704 1706 1707 1705
4 1708 1710 1711 1709
4 1712 1714 1715 1713
4 1716 1718 1719 1717
4 1720 1722 1723 1721
4 1724 1726 1727 1725
4 1728 1730 1731 1729
4 1732 1734 1735 1733
4 1736 1738 1739 1737
4 1740 1742 1743 1741
4 1744 1746 1747 1745
4 1748 1750 1751 1749
4 1752 1754 1755 1753
4 1756 1758 1759 1757
4 1760 1762 1763 1761
4 1764 1766 1767 1765
4 1768 1770 1771 1769
4 1772 1774 1775 1773
4 1776 1778 1779 1777
4 1780 1782 1783 1781
4 1784 1786 1787 1785
4 1788 1790 1791 1789
4 1792 1794 1795 1793
4 1796 1798 1799 1797
4 1800 1802 1803 1801
4 1804 1806 1807 1805
4 1808 1810 1811 1809
4 1812 1814 1815 1813
4 1816 1818 1819 1817
4 1820 1822 1823 1821
4 1824 1826 1827 1825
4 1828 1830 1831 1829
4 1832 1834 1835 1833
4 1836 1838 1839 1837
4 1840 1842 1843 1841
4 1844 1846 1847 1845
4 1848 1850 1851 1849
4 1852 1854 1855 1853
4 1856 1858 1859 1857
4 1860 1862 1863 1861
4 1864 1866 1867 1865
4 1868 1870 1871 1869
4 1872 1874 1875 1873
4 1876 1878 1879 1877
4 1880 1882 1883 1881
4 1884 1886 1887 1885
4 1888 1890 1891 1889
4 1892 1894 1895 1893
4 1896 1898 1899 1897
4 1900 1902 1903 1901
4 1904 1906 1907 1905
4 1908 1910 1911 1909
4 1912 1914 1915 1913
4 1916 1918 1919 1917
4 1920 1922 1923 1921
4 1924 1926 1927 1925
4 1928 1930 1931 1929
4 1932 1934 1935 1933
4 1936 1938 1939 1937
4 1940 1942 1943 1941
4 1944 1946 1947 1945
4 1948 1950 1951 1949
4 1952 1954 1955 1953
4 1956 1958 1959 1957
4 1960 1962 1963 1961
4 1964 1966 1967 1965
4 1968 1970 1971 1969
4 1972 1974 1975 1973
4 1976 1978 1979 1977
4 1980 1982 1983 1981
4 1984 1986 1987 1985
4 1988 1990 1991 1989
4 1992 1994 1995 1993
4 1996 1998 1999 1997
4 2000 2002 2003 2001
4 2004 2006 2007 2005
4 2008 2010 2011 2009
4 2012 2014 2015 2013
4 2016 2018 2019 2017
4 2020 2022 2023 2021
4 2024 2026 2027 2025
4 2028 2030 2031 2029
4 2032 2034 2035 2033
4 2036 2038 2039 2037
4 2040 2042 2043 2041
4 2044 2046 2047 2045
4 2048 2050 2051 2049
4 2052 2054 2055 2053
4 2056 2058 2059 2057
4 2060 2062 2063 2061
4 2064 2066 2067 2065
4 2068 2070 2071 2069
4 2072 2074 2075 2073
4 2076 2078 2079 2077
4 2080 2082 2083 2081
4 2084 2086 2087 2085
4 2088 2090 2091 2089
4 2092 2094 2095 2093
4 2096 2098 2099 2097
4 2100 2102 2103 2101
4 2104 2106 2107 2105
4 2108 2110 2111 2109
4 2112 2114 2115 2113
4 2116 2118 2119 2117
4 2120 2122 2123 2121
4 2124 2126 2127 2125
4 2128 2130 2131 2129
4 2132 2134 2135 2133
4 2136 2138 2139 2137
4 2140 2142 2143 2141
4 2144 2146 2147 2145
4 2148 2150 2151 2149
4 2152 2154 2155 2153
4 2156 2158 2159 2157
4 2160 2162 2163 2161
4 2164 2166 2167 2165
4 2168 2170 2171 2169
4 2172 2174 2175 2173
4 2176 2178 2179 2177
4 2180 2182 2183 2181
4 2184 2186 2187 2185
4 2188 2190 2191 2189
4 2192 2194 2195 2193
4 2196 2198 2199 2197
4 2200 2202 2203 2201
4 2204 2206 2207 2205
4 2208 2210 2211 2209
4 2212 2214 2215 2213
4 2216 2218 2219 2217
4 2220 2222 2223 2221
4 2224 2226 2227 2225
4 2228 2230 2231 2229
4 2232 2234 2235 2233
4 2236 2238 2239 2237
4 2240 2242 2243 2241
4 2244 2246 2247 2245
4 2248 2250 2251 2249
4 2252 2254 2255 2253
4 2256 2258 2259 2257
4 2260 2262 2263 2261
4 2264 2266 2267 2265
4 2268 2270 2271 2269
4 2272 2274 2275 2273
4 2276 2278 2279 2277
4 2280 2282 2283 2281
4 2284 2286 2287 2285
4 2288 2290 2291 2289
4 2292 2294 2295 2293
4 2296 2298 2299 2297
4 2300 2302 2303 2301
4 2304 2306 2307 2305
4 2308 2310 2311 2309
4 2312 2314 2315 2313
4 2316 2318 2319 2317
4 2320 2322 2323 2321
4 2324 2326 2327 2325
4 2328 2330 2331 2329
4 2332 2334 2335 2333
4 2336 2338 2339 2337
4 2340 2342 2343 2341
4 2344 2346 2347 2345
4 2348 2350 2351 2349
4 2352 2354 2355 2353
4 2356 2358 2359 2357
4 2360 2362 2363 2361
4 2364 2366 2367 2365
4 2368 2370 2371 2369
4 2372 2374 2375 2373
4 2376 2378 2379 2377
4 2380 2382 2383 2381
4 2384 2386 2387 2385
4 2388 2390 2391 2389
4 2392 2394 2395 2393
4 2396 2398 2399 2397
4 2400 2402 2403 2401
4 2404 2406 2407 2405
4 2408 2410 2411 2409
4 2412 2414 2415 2413
4 2416 2418 2419 2417
4 2420 2422 2423 2421
4 2424 2426 2427 2425
4 2428 2430 2431 2429
4 2432 2434 2435 2433
4 2436 2438 2439 2437
4 2440 2442 2443 2441
4 2444 2446 2447 2445
4 2448 2450 2451 2449
4 2452 2454 2455 2453
4 2456 2458 2459 2457
4 2460 2462 2463 2461
4 2464 2466 2467 2465
4 2468 2470 2471 2469
4 2472 2474 2475 2473
4 2476 2478 2479 2477
4 2480 2482 2483 2481
4 2484 2486 2487 2485
4 2488 2490 2491 2489
4 2492 2494 2495 2493
4 2496 2498 2499 2497
4 2500 2502 2503 2501
4 2504 2506 2507 2505
4 2508 2510 2511 2509
4 2512 2514 2515 2513
4 2516 2518 2519 2517
4 2520 2522 2523 2521
4 2524 2526 2527 2525
4 2528 2530 2531 2529
4 2532 2534 2535 2533
4 2536 2538 2539 2537
4 2540 2542 2543 2541
4 2544 2546 2547 2545
4 2548 2550 2551 2549
4 2552 2554 2555 2553
4 2556 2558 2559 2557
4 2560 2562 2563 2561
4 2564 2566 2567 2565
4 2568 2570 2571 2569
4 2572 2574 2575 2573
4 2576 2578 2579 2577
4 2580 2582 2583 2581
4 2584 2586 2587 2585
4 2588 2590 2591 2589
4 2592 2594 2595 2593
4 2596 2598 2599 2597
4 2600 2602 2603 2601
4 2604 2606 2607 2605
4 2608 2610 2611 2609
4 2612 2614 2615 2613
4 2616 2618 2619 2617
4 2620 2622 2623 2621
4 2624 2626 2627 2625
4 2628 2630 2631 2629
4 2632 2634 2635 2633
4 2636 2638 2639 2637
4 2640 2642 2643 2641
4 2644 2646 2647 2645
4 2648 2650 2651 2649
4 2652 2654 2655 2653
4 2656 2658 2659 2657
4 2660 2662 2663 2661
4 2664 2666 2667 2665
4 2668 2670 2671 2669
4 2672 2674 2675 2673
4 2676 2678 2679 2677
4 2680 2682 2683 2681
4 2684 2686 2687 2685
4 2688 2690 2691 2689
4 2692 2694 2695 2693
4 2696 2698 2699 2697
4 2700 2702 2703 2701
4 2704 2706 2707 2705
4 2708 2710 2711 2709
4 2712 2714 2715 2713
4 2716 2718 2719 2717
4 2720 2722 2723 2721
4 2724 2726 2727 2725
4 2728 2730 2731 2729
4 2732 2734 2735 2733
4 2736 2738 2739 2737
4 2740 2742 2743 2741
4 2744 2746 2747 2745
4 2748 2750 2751 2749
4 2752 2754 2755 2753
4 2756 2758 2759 2757
4 2760 2762 2763 2761
4 2764 2766 2767 2765
4 2768 2770 2771 2769
4 2772 2774 2775 2773
4 2776 2778 2779 2777
4 2780 2782 2783 2781
4 2784 2786 2787 2785
4 2788 2790 2791 2789
4 2792 2794 2795 2793
4 2796 2798 2799 2797
4 2800 2802 2803 2801
4 2804 2806 2807 2805
4 2808 2810 2811 2809
4 2812 2814 2815 2813
4 2816 2818 2819 2817
4 2820 2822 2823 2821
4 2824 2826 2827 2825
4 2828 2830 2831 2829
4 2832 2834 2835 2833
4 2836 2838 2839 2837
4 2840 2842 2843 2841
4 2844 2846 2847 2845
4 2848 2850 2851 2849
4 2852 2854 2855 2853
4 2856 2858 2859 2857
4 2860 2862 2863 2861
4 2864 2866 2867 2865
4 2868 2870 2871 2869
4 2872 2874 2875 2873
4 2876 2878 2879 2877
4 2880 2882 2883 2881
4 2884 2886 2887 2885
4 2888 2890 2891 2889
4 2892 2894 2895 2893
4 2896 2898 2899 2897
4 2900 2902 2903 2901
4 2904 2906 2907 2905
4 2908 2910 2911 2909
4 2912 2914 2915 2913
4 2916 2918 2919 2917
4 2920 2922 2923 2921
4 2924 2926 2927 2925
4 2928 2930 2931 2929
4 2932 2934 2935 2933
4 2936 2938 2939 2937
4 2940 2942 2943 2941
4 2944 2946 2947 2945
4 2948 2950 2951 2949
4 2952 2954 2955 2953
4 2956 2958 2959 2957
4 2960 2962 2963 2961
4 2964 2966 2967 2965
4 2968 2970 2971 2969
4 2972 2974 2975 2973
4 2976 2978 2979 2977
4 2980 2982 2983 2981
4 2984 2986 2987 2985
4 2988 2990 2991 2989
4 2992 2994 2995 2993
4 2996 2998 2999 2997
4 3000 3002 3003 3001
4 3004 3006 3007 3005
4 3008 3010 3011 3009
4 3012 3014 3015 3013
4 3016 3018 3019 3017
4 3020 3022 3023 3021
4 3024 3026 3027 3025
4 3028 3030 3031 3029
4 3032 3034 3035 3033
4 3036 3038 3039 3037
4 3040 3042 3043 3041
4 3044 3046 3047 3045
4 3048 3050 3051 3049
4 3052 3054 3055 3053
4 3056 3058 3059 3057
4 3060 3062 3063 3061
4 3064 3066 3067 3065
4 3068 3070 3071 3069
4 3072 3074 3075 3073
4 3076 3078 3079 3077
4 3080 3082 3083 3081
4 3084 3086 3087 3085
4 3088 3090 3091 3089
4 3092 3094 3095 3093
4 3096 3098 3099 3097
4 3100 3102 3103 3101
4 3104 3106 3107 3105
4 3108 3110 3111 3109
4 3112 3114 3115 3113
4 3116 3118 3119 3117
4 3120 3122 3123 3121
4 3124 3126 3127 3125
4 3128 3130 3131 3129
4 3132 3134 3135 3133
4 3136 3138 3139 3137
4 3140 3142 3143 3141
4 3144 3146 3147 3145
4 3148 3150 3151 3149
4 3152 3154 3155 3153
4 3156 3158 3159 3157
4 3160 3162 3163 3161
4 3164 3166 3167 3165
4 3168 3170 3171 3169
4 3172 3174 3175 3173
4 3176 3178 3179 3177
4 3180 3182 3183 3181
4 3184 3186 3187 3185
4 3188 3190 3191 3189
4 3192 3194 3195 3193
4 3196 3198 3199 3197
4 3200 3202 3203 3201
4 3204 3206 3207 3205
4 3208 3210 3211 3209
4 3212 3214 3215 3213
4 3216 3218 3219 3217
4 3220 3222 3223 3221
4 3224 3226 3227 3225
4 3228 3230 3231 3229
4 3232 3234 3235 3233
4 3236 3238 3239 3237
4 3240 3242 3243 3241
4 3244 3246 3247 3245
4 3248 3250 3251 3249
4 3252 3254 3255 3253
4 3256 3258 3259 3257
4 3260 3262 3263 3261
4 3264 3266 3267 3265
4 3268 3270 3271 3269
4 3272 3274 3275 3273
4 3276 3278 3279 3277
4 3280 3282 3283 3281
4 3284 3286 3287 3285
4 3288 3290 3291 3289
4 3292 3294 3295 3293
4 3296 3298 3299 3297
4 3300 3302 3303 3301
4 3304 3306 3307 3305
4 3308 3310 3311 3309
4 3312 3314 3315 3313
4 3316 3318 3319 3317
4 3320 3322 3323 3321
4 3324 3326 3327 3325
4 3328 3330 3331 3329
4 3332 3334 3335 3333
4 3336 3338 3339 3337
4 3340 3342 3343 3341
4 3344 3346 3347 3345
4 3348 3350 3351 3349
4 3352 3354 3355 3353
4 3356 3358 3359 3357
4 3360 3362 3363 3361
4 3364 3366 3367 3365
4 3368 3370 3371 3369
4 3372 3374 3375 3373
4 3376 3378 3379 3377
4 3380 3382 3383 3381
4 3384 3386 3387 3385
4 3388 3390 3391 3389
4 3392 3394 3395 3393
4 3396 3398 3399 3397
4 3400 3402 3403 3401
4 3404 3406 3407 3405
4 3408 3410 3411 3409
4 3412 3414 3415 3413
4 3416 3418 3419 3417
4 3420 3422 3423 3421
4 3424 3426 3427 3425
4 3428 3430 3431 3429
4 3432 3434 3435 3433
4 3436 3438 3439 3437
4 3440 3442 3443 3441
4 3444 3446 3447 3445
4 3448 3450 3451 3449
4 3452 3454 3455 3453
4 3456 3458 3459 3457
4 3460 3462 3463 3461
4 3464 3466 3467 3465
4 3468 3470 3471 3469
4 3472 3474 3475 3473
4 3476 3478 3479 3477
4 3480 3482 3483 3481
4 3484 3486 3487 3485
4 3488 3490 3491 3489
4 3492 3494 3495 3493
4 3496 3498 3499 3497
4 3500 3502 3503 3501
4 3504 3506 3507 3505
4 3508 3510 3511 3509
4 3512 3514 3515 3513
4 3516 3518 3519 3517
4 3520 3522 3523 3521
4 3524 3526 3527 3525
4 3528 3530 3531 3529
4 3532 3534 3535 3533
4 3536 3538 3539 3537
4 3540 3542 3543 3541
4 3544 3546 3547 3545
4 3548 3550 3551 3549
4 3552 3554 3555 3553
4 3556 3558 3559 3557
4 3560 3562 3563 3561
4 3564 3566 3567 3565
4 3568 3570 3571 3569
4 3572 3574 3575 3573
4 3576 3578 3579 3577
4 3580 3582 3583 3581
4 3584 3586 3587 3585
4 3588 3590 3591 3589
4 3592 3594 3595 3593
4 3596 3598 3599 3597
4 3600 3602 3603 3601
4 3604 3606 3607 3605
4 3608 3610 3611 3609
4 3612 3614 3615 3613
4 3616 3618 3619 3617
4 3620 3622 3623 3621
4 3624 3626 3627 3625
4 3628 3630 3631 3629
4 3632 3634 3635 3633
4 3636 3638 3639 3637
4 3640 3642 3643 3641
4 3644 3646 3647 3645
4 3648 3650 3651 3649
4 3652 3654 3655 3653
4 3656 3658 3659 3657
4 3660 3662 3663 3661
4 3664 3666 3667 3665
4 3668 3670 3671 3669
4 3672 3674 3675 3673
4 3676 3678 3679 3677
4 3680 3682 3683 3681
4 3684 3686 3687 3685
4 3688 3690 3691 3689
4 3692 3694 3695 3693
4 3696 3698 3699 3697
4 3700 3702 3703 3701
4 3704 3706 3707 3705
4 3708 3710 3711 3709
4 3712 3714 3715 3713
4 3716 3718 3719 3717
4 3720 3722 3723 3721
4 3724 3726 3727 3725
4 3728 3730 3731 3729
4 3732 3734 3735 3733
4 3736 3738 3739 3737
4 3740 3742 3743 3741
4 3744 3746 3747 3745
4 3748 3750 3751 3749
4 3752 3754 3755 3753
4 3756 3758 3759 3757
4 3760 3762 3763 3761
4 3764 3766 3767 3765
4 3768 3770 3771 3769
4 3772 3774 3775 3773
4 3776 3778 3779 3777
4 3780 3782 3783 3781
4 3784 3786 3787 3785
4 3788 3790 3791 3789
4 3792 3794 3795 3793
4 3796 3798 3799 3797
4 3800 3802 3803 3801
4 3804 3806 3807 3805
4 3808 3810 3811 3809
4 3812 3814 3815 3813
4 3816 3818 3819 3817
4 3820 3822 3823 3821
4 3824 3826 3827 3825
4 3828 3830 3831 3829
4 3832 3834 3835 3833
4 3836 3838 3839 3837
4 3840 3842 3843 3841
4 3844 3846 3847 3845
4 3848 3850 3851 3849
4 3852 3854 3855 3853
4 3856 3858 3859 3857
4 3860 3862 3863 3861
4 3864 3866 3867 3865
4 3868 3870 3871 3869
4 3872 3874 3875 3873
4 3876 3878 3879 3877
4 3880 3882 3883 3881
4 3884 3886 3887 3885
4 3888 3890 3891 3889
4 3892 3894 3895 3893
4 3896 3898 3899 3897
4 3900 3902 3903 3901
4 3904 3906 3907 3905
4 3908 3910 3911 3909
4 3912 3914 3915 3913
4 3916 3918 3919 3917
4 3920 3922 3923 3921
4 3924 3926 3927 3925
4 3928 3930 3931 3929
4 3932 3934 3935 3933
4 3936 3938 3939 3937
4 3940 3942 3943 3941
4 3944 3946 3947 3945
4 3948 3950 3951 3949
4 3952 3954 3955 3953
4 3956 3958 3959 3957
4 3960 3962 3963 3961
4 3964 3966 3967 3965
4 3968 3970 3971 3969
4 3972 3974 3975 3973
4 3976 3978 3979 3977
4 3980 3982 3983 3981
4 3984 3986 3987 3985
4 3988 3990 3991 3989
4 3992 3994 3995 3993
4 3996 3998 3999 3997
4 4000 4002 4003 4001
4 4004 4006 4007 4005
4 4008 4010 4011 4009
4 4012 4014 4015 4013
4 4016 4018 4019 4017
4 4020 4022 4023 4021
4 4024 4026 4027 4025
4 4028 4030 4031 4029
4 4032 4034 4035 4033
4 4036 4038 4039 4037
4 4040 4042 4043 4041
4 4044 4046 4047 4045
4 4048 4050 4051 4049
4 4052 4054 4055 4053
4 4056 4058 4059 4057
4 4060 4062 4063 4061
4 4064 4066 4067 4065
4 4068 4070 4071 4069
4 4072 4074 4075 4073
4 4076 4078 4079 4077
4 4080 4082 4083 4081
4 4084 4086 4087 4085
4 4088 4090 4091 4089
4 4092 4094 4095 4093
4 4096 4098 4099 4097
4 4100 4102 4103 4101
4 4104 4106 4107 4105
4 4108 4110 4111 4109
4 4112 4114 4115 4113
4 4116 4118 4119 4117
4 4120 4122 4123 4121
4 4124 4126 4127 4125
4 4128 4130 4131 4129
4 4132 4134 4135 4133
4 4136 4138 4139 4137
4 4140 4142 4143 4141
4 4144 4146 4147 4145
4 4148 4150 4151 4149
4 4152 4154 4155 4153
4 4156 4158 4159 4157
4 4160 4162 4163 4161
4 4164 4166 4167 4165
4 4168 4170 4171 4169
4 4172 4174 4175 4173
4 4176 4178 4179 4177
4 4180 4182 4183 4181
4 4184 4186 4187 4185
4 4188 4190 4191 4189
4 4192 4194 4195 4193
4 4196 4198 4199 4197
4 4200 4202 4203 4201
4 4204 4206 4207 4205
4 4208 4210 4211 4209
4 4212 4214 4215 4213
4 4216 4218 4219 4217
4 4220 4222 4223 4221
4 4224 4226 4227 4225
4 4228 4230 4231 4229
4 4232 4234 4235 4233
4 4236 4238 4239 4237
4 4240 4242 4243 4241
4 4244 4246 4247 4245
4 4248 4250 4251 4249
4 4252 4254 4255 4253
4 4256 4258 4259 4257
4 4260 4262 4263 4261
4 4264 4266 4267 4265
4 4268 4270 4271 4269
4 4272 4274 4275 4273
4 4276 4278 4279 4277
4 4280 4282 4283 4281
4 4284 4286 4287 4285
4 4288 4290 4291 4289
4 4292 4294 4295 4293
4 4296 4298 4299 4297
4 4300 4302 4303 4301
4 4304 4306 4307 4305
4 4308 4310 4311 4309
4 4312 4314 4315 4313
4 4316 4318 4319 4317
4 4320 4322 4323 4321
4 4324 4326 4327 4325
4 4328 4330 4331 4329
4 4332 4334 4335 4333
4 4336 4338 4339 4337
4 4340 4342 4343 4341
4 4344 4346 4347 4345
4 4348 4350 4351 4349
4 4352 4354 4355 4353
4 4356 4358 4359 4357
4 4360 4362 4363 4361
4 4364 4366 4367 4365
4 4368 4370 4371 4369
4 4372 4374 4375 4373
4 4376 4378 4379 4377
4 4380 4382 4383 4381
4 4384 4386 4387 4385
4 4388 4390 4391 4389
4 4392 4394 4395 4393
4 4396 4398 4399 4397
4 4400 4402 4403 4401
4 4404 4406 4407 4405
4 4408 4410 4411 4409
4 4412 4414 4415 4413
4 4416 4418 4419 4417
4 4420 4422 4423 4421
4 4424 4426 4427 4425
4 4428 4430 4431 4429
4 4432 4434 4435 4433
4 4436 4438 4439 4437
4 4440 4442 4443 4441
4 4444 4446 4447 4445
4 4448 4450 4451 4449
4 4452 4454 4455 4453
4 4456 4458 4459 4457
4 4460 4462 4463 4461
4 4464 4466 4467 4465
4 4468 4470 4471 4469
4 4472 4474 4475 4473
4 4476 4478 4479 4477
4 4480 4482 4483 4481
4 4484 4486 4487 4485
4 4488 4490 4491 4489
4 4492 4494 4495 4493
4 4496 4498 4499 4497
4 4500 4502 4503 4501
4 4504 4506 4507 4505
4 4508 4510 4511 4509
4 4512 4514 4515 4513
4 4516 4518 4519 4517
4 4520 4522 4523 4521
4 4524 4526 4527 4525
4 4528 4530 4531 4529
4 4532 4534 4535 4533
4 4536 4538 4539 4537
4 4540 4542 4543 4541
4 4544 4546 4547 4545
4 4548 4550 4551 4549
4 4552 4554 4555 4553
4 4556 4558 4559 4557
4 4560 4562 4563 4561
4 4564 4566 4567 4565
4 4568 4570 4571 4569
4 4572 4574 4575 4573
4 4576 4578 4579 4577
4 4580 4582 4583 4581
4 4584 4586 4587 4585
4 4588 4590 4591 4589
4 4592 4594 4595 4593
4 4596 4598 4599 4597
4 4600 4602 4603 4601
4 4604 4606 4607 4605
4 4608 4610 4611 4609
4 4612 4614 4615 4613
4 4616 4618 4619 4617
4 4620 4622 4623 4621
4 4624 4626 4627 4625
4 4628 4630 4631 4629
4 4632 4634 4635 4633
4 4636 4638 4639 4637
4 4640 4642 4643 4641
4 4644 4646 4647 4645
4 4648 4650 4651 4649
4 4652 4654 4655 4653
4 4656 4658 4659 4657
4 4660 4662 4663 4661
4 4664 4666 4667 4665
4 4668 4670 4671 4669
4 4672 4674 4675 4673
4 4676 4678 4679 4677
4 4680 4682 4683 4681
4 4684 4686 4687 4685
4 4688 4690 4691 4689
4 4692 4694 4695 4693
4 4696 4698 4699 4697
4 4700 4702 4703 4701
4 4704 4706 4707 4705
4 4708 4710 4711 4709
4 4712 4714 4715 4713
4 4716 4718 4719 4717
4 4720 4722 4723 4721
4 4724 4726 4727 4725
4 4728 4730 4731 4729
4 4732 4734 4735 4733
4 4736 4738 4739 4737
4 4740 4742 4743 4741
4 4744 4746 4747 4745
4 4748 4750 4751 4749
4 4752 4754 4755 4753
4 4756 4758 4759 4757
4 4760 4762 4763 4761
4 4764 4766 4767 4765
4 4768 4770 4771 4769
4 4772 4774 4775 4773
4 4776 4778 4779 4777
4 4780 4782 4783 4781
4 4784 4786 4787 4785
4 4788 4790 4791 4789
4 4792 4794 4795 4793
4 4796 4798 4799 4797
4 4800 4802 4803 4801
4 4804 4806 4807 4805
4 4808 4810 4811 4809
4 4812 4814 4815 4813
4 4816 4818 4819 4817
4 4820 4822 4823 4821
4 4824 4826 4827 4825
4 4828 4830 4831 4829
4 4832 4834 4835 4833
4 4836 4838 4839 4837
4 4840 4842 4843 4841
4 4844 4846 4847 4845
4 4848 4850 4851 4849
4 4852 4854 4855 4853
4 4856 4858 4859 4857
4 4860 4862 4863 4861
4 4864 4866 4867 4865
4 4868 4870 4871 4869
4 4872 4874 4875 4873
4 4876 4878 4879 4877
4 4880 4882 4883 4881
4 4884 4886 4887 4885
4 4888 4890 4891 4889
4 4892 4894 4895 4893
4 4896 4898 4899 4897
4 4900 4902 4903 4901
4 4904 4906 4907 4905
4 4908 4910 4911 4909
4 4912 4914 4915 4913
4 4916 4918 4919 4917
4 4920 4922 4923 4921
4 4924 4926 4927 4925
4 4928 4930 4931 4929
4 4932 4934 4935 4933
4 4936 4938 4939 4937
4 4940 4942 4943 4941
4 4944 4946 4947 4945
4 4948 4950 4951 4949
4 4952 4954 4955 4953
4 4956 4958 4959 4957
4 4960 4962 4963 4961
4 4964 4966 4967 4965
4 4968 4970 4971 4969
4 4972 4974 4975 4973
4 4976 4978 4979 4977
4 4980 4982 4983 4981
4 4984 4986 4987 4985
4 4988 4990 4991 4989
4 4992 4994 4995 4993
4 4996 4998 4999 4997
4 5000 5002 5003 5001
4 5004 5006 5007 5005
4 5008 5010 5011 5009
4 5012 5014 5015 5013
4 5016 5018 5019 5017
4 5020 5022 5023 5021
4 5024 5026 5027 5025
4 5028 5030 5031 5029
4 5032 5034 5035 5033
4 5036 5038 5039 5037
4 5040 5042 5043 5041
4 5044 5046 5047 5045
4 5048 5050 5051 5049
4 5052 5054 5055 5053
4 5056 5058 5059 5057
4 5060 5062 5063 5061
4 5064 5066 5067 5065
4 5068 5070 5071 5069
4 5072 5074 5075 5073
4 5076 5078 5079 5077
4 5080 5082 5083 5081
4 5084 5086 5087 5085
4 5088 5090 5091 5089
4 5092 5094 5095 5093
4 5096 5098 5099 5097
4 5100 5102 5103 5101
4 5104 5106 5107 5105
4 5108 5110 5111 5109
4 5112 5114 5115 5113
4 5116 5118 5119 5117
4 5120 5122 5123 5121
4 5124 5126 5127 5125
4 5128 5130 5131 5129
4 5132 5134 5135 5133
4 5136 5138 5139 5137
4 5140 5142 5143 5141
4 5144 5146 5147 5145
4 5148 5150 5151 5149
4 5152 5154 5155 5153
4 5156 5158 5159 5157
4 5160 5162 5163 5161
4 5164 5166 5167 5165
4 5168 5170 5171 5169
4 5172 5174 5175 5173
4 5176 5178 5179 5177
4 5180 5182 5183 5181
4 5184 5186 5187 5185
4 5188 5190 5191 5189
4 5192 5194 5195 5193
4 5196 5198 5199 5197
4 5200 5202 5203 5201
4 5204 5206 5207 5205
4 5208 5210 5211 5209
4 5212 5214 5215 5213
4 5216 5218 5219 5217
4 5220 5222 5223 5221
4 5224 5226 5227 5225
4 5228 5230 5231 5229
4 5232 5234 5235 5233
4 5236 5238 5239 5237
4 5240 5242 5243 5241
4 5244 5246 5247 5245
4 5248 5250 5251 5249
4 5252 5254 5255 5253
4 5256 5258 5259 5257
4 5260 5262 5263 5261
4 5264 5266 5267 5265
4 5268 5270 5271 5269
4 5272 5274 5275 5273
4 5276 5278 5279 5277
4 5280 5282 5283 5281
4 5284 5286 5287 5285
4 5288 5290 5291 5289
4 5292 5294 5295 5293
4 5296 5298 5299 5297
4 5300 5302 5303 5301
4 5304 5306 5307 5305
4 5308 5310 5311 5309
4 5312 5314 5315 5313
4 5316 5318 5319 5317
4 5320 5322 5323 5321
4 5324 5326 5327 5325
4 5328 5330 5331 5329
4 5332 5334 5335 5333
4 5336 5338 5339 5337
4 5340 5342 5343 5341
4 5344 5346 5347 5345
4 5348 5350 5351 5349
4 5352 5354 5355 5353
4 5356 5358 5359 5357
4 5360 5362 5363 5361
4 5364 5366 5367 5365
4 5368 5370 5371 5369
4 5372 5374 5375 5373
4 5376 5378 5379 5377
4 5380 5382 5383 5381
4 5384 5386 5387 5385
4 5388 5390 5391 5389
4 5392 5394 5395 5393
4 5396 5398 5399 5397
4 5400 5402 5403 5401
4 5404 5406 5407 5405
4 5408 5410 5411 5409
4 5412 5414 5415 5413
4 5416 5418 5419 5417
4 5420 5422 5423 5421
4 5424 5426 5427 5425
4 5428 5430 5431 5429
4 5432 5434 5435 5433
4 5436 5438 5439 5437
4 5440 5442 5443 5441
4 5444 5446 5447 5445
4 5448 5450 5451 5449
4 5452 5454 5455 5453
4 5456 5458 5459 5457
4 5460 5462 5463 5461
4 5464 5466 5467 5465
4 5468 5470 5471 5469
4 5472 5474 5475 5473
4 5476 5478 5479 5477
4 5480 5482 5483 5481
4 5484 5486 5487 5485
4 5488 5490 5491 5489
4 5492 5494 5495 5493
4 5496 5498 5499 5497
4 5500 5502 5503 5501
4 5504 5506 5507 5505
4 5508 5510 5511 5509
4 5512 5514 5515 5513
4 5516 5518 5519 5517
4 5520 5522 5523 5521
4 5524 5526 5527 5525
4 5528 5530 5531 5529
4 5532 5534 5535 5533
4 5536 5538 5539 5537
4 5540 5542 5543 5541
4 5544 5546 5547 5545
4 5548 5550 5551 5549
4 5552 5554 5555 5553
4 5556 5558 5559 5557
4 5560 5562 5563 5561
4 5564 5566 5567 5565
4 5568 5570 5571 5569
4 5572 5574 5575 5573
4 5576 5578 5579 5577
4 5580 5582 5583 5581
4 5584 5586 5587 5585
4 5588 5590 5591 5589
4 5592 5594 5595 5593
4 5596 5598 5599 5597
4 5600 5602 5603 5601
4 5604 5606 5607 5605
4 5608 5610 5611 5609
4 5612 5614 5615 5613
4 5616 5618 5619 5617
4 5620 5622 5623 5621
4 5624 5626 5627 5625
4 5628 5630 5631 5629
4 5632 5634 5635 5633
4 5636 5638 5639 5637
4 5640 5642 5643 5641
4 5644 5646 5647 5645
4 5648 5650 5651 5649
4 5652 5654 5655 5653
4 5656 5658 5659 5657
4 5660 5662 5663 5661
4 5664 5666 5667 5665
4 5668 5670 5671 5669
4 5672 5674 5675 5673
4 5676 5678 5679 5677
4 5680 5682 5683 5681
4 5684 5686 5687 5685
4 5688 5690 5691 5689
4 5692 5694 5695 5693
4 5696 5698 5699 5697
4 5700 5702 5703 5701
4 5704 5706 5707 5705
4 5708 5710 5711 5709
4 5712 5714 5715 5713
4 5716 5718 5719 5717
4 5720 5722 5723 5721
4 5724 5726 5727 5725
4 5728 5730 5731 5729
4 5732 5734 5735 5733
4 5736 5738 5739 5737
4 5740 5742 5743 5741
4 5744 5746 5747 5745
4 5748 5750 5751 5749
4 5752 5754 5755 5753
4 5756 5758 5759 5757
4 5760 5762 5763 5761
4 5764 5766 5767 5765
4 5768 5770 5771 5769
4 5772 5774 5775 5773
4 5776 5778 5779 5777
4 5780 5782 5783 5781
4 5784 5786 5787 5785
4 5788 5790 5791 5789
4 5792 5794 5795 5793
4 5796 5798 5799 5797
4 5800 5802 5803 5801
4 5804 5806 5807 5805
4 5808 5810 5811 5809
4 5812 5814 5815 5813
4 5816 5818 5819 5817
4 5820 5822 5823 5821
4 5824 5826 5827 5825
4 5828 5830 5831 5829
4 5832 5834 5835 5833
4 5836 5838 5839 5837
4 5840 5842 5843 5841
4 5844 5846 5847 5845
4 5848 5850 5851 5849
4 5852 5854 5855 5853
4 5856 5858 5859 5857
4 5860 5862 5863 5861
4 5864 5866 5867 5865
4 5868 5870 5871 5869
4 5872 5874 5875 5873
4 5876 5878 5879 5877
4 5880 5882 5883 5881
4 5884 5886 5887 5885
4 5888 5890 5891 5889
4 5892 5894 5895 5893
4 5896 5898 5899 5897
4 5900 5902 5903 5901
4 5904 5906 5907 5905
4 5908 5910 5911 5909
4 5912 5914 5915 5913
4 5916 5918 5919 5917
4 5920 5922 5923 5921
4 5924 5926 5927 5925
4 5928 5930 5931 5929
4 5932 5934 5935 5933
4 5936 5938 5939 5937
4 5940 5942 5943 5941
4 5944 5946 5947 5945
4 5948 5950 5951 5949
4 5952 5954 5955 5953
4 5956 5958 5959 5957
4 5960 5962 5963 5961
4 5964 5966 5967 5965
4 5968 5970 5971 5969
4 5972 5974 5975 5973
4 5976 5978 5979 5977
4 5980 5982 5983 5981
4 5984 5986 5987 5985
4 5988 5990 5991 5989
4 5992 5994 5995 5993
4 5996 5998 5999 5997
4 6000 6002 6003 6001
4 6004 6006 6007 6005
4 6008 6010 6011 6009
4 6012 6014 6015 6013
4 6016 6018 6019 6017
4 6020 6022 6023 6021
4 6024 6026 6027 6025
4 6028 6030 6031 6029
4 6032 6034 6035 6033
4 6036 6038 6039 6037
4 6040 6042 6043 6041
4 6044 6046 6047 6045
4 6048 6050 6051 6049
4 6052 6054 6055 6053
4 6056 6058 6059 6057
4 6060 6062 6063 6061
4 6064 6066 6067 6065
4 6068 6070 6071 6069
4 6072 6074 6075 6073
4 6076 6078 6079 6077
4 6080 6082 6083 6081
4 6084 6086 6087 6085
4 6088 6090 6091 6089
4 6092 6094 6095 6093
4 6096 6098 6099 6097
4 6100 6102 6103 6101
4 6104 6106 6107 6105
4 6108 6110 6111 6109
4 6112 6114 6115 6113
4 6116 6118 6119 6117
4 6120 6122 6123 6121
4 6124 6126 6127 6125
4 6128 6130 6131 6129
4 6132 6134 6135 6133
4 6136 6138 6139 6137
4 6140 6142 6143 6141
4 6144 6146 6147 6145
4 6148 6150 6151 6149
4 6152 6154 6155 6153
4 6156 6158 6159 6157
4 6160 6162 6163 6161
4 6164 6166 6167 6165
4 6168 6170 6171 6169
4 6172 6174 6175 6173
4 6176 6178 6179 6177
4 6180 6182 6183 6181
4 6184 6186 6187 6185
4 6188 6190 6191 6189
4 6192 6194 6195 6193
4 6196 6198 6199 6197
4 6200 6202 6203 6201
4 6204 6206 6207 6205
4 6208 6210 6211 6209
4 6212 6214 6215 6213
4 6216 6218 6219 6217
4 6220 6222 6223 6221
4 6224 6226 6227 6225
4 6228 6230 6231 6229
4 6232 6234 6235 6233
4 6236 6238 6239 6237
4 6240 6242 6243 6241
4 6244 6246 6247 6245
4 6248 6250 6251 6249
4 6252 6254 6255 6253
4 6256 6258 6259 6257
4 6260 6262 6263 6261
4 6264 6266 6267 6265
4 6268 6270 6271 6269
4 6272 6274 6275 6273
4 6276 6278 6279 6277
4 6280 6282 6283 6281
4 6284 6286 6287 6285
4 6288 6290 6291 6289
4 6292 6294 6295 6293
4 6296 6298 6299 6297
4 6300 6302 6303 6301
4 6304 6306 6307 6305
4 6308 6310 6311 6309
4 6312 6314 6315 6313
4 6316 6318 6319 6317
4 6320 6322 6323 6321
4 6324 6326 6327 6325
4 6328 6330 6331 6329
4 6332 6334 6335 6333
4 6336 6338 6339 6337
4 6340 6342 6343 6341
4 6344 6346 6347 6345
4 6348 6350 6351 6349
4 6352 6354 6355 6353
4 6356 6358 6359 6357
4 6360 6362 6363 6361
4 6364 6366 6367 6365
4 6368 6370 6371 6369
4 6372 6374 6375 6373
4 6376 6378 6379 6377
4 6380 6382 6383 6381
4 6384 6386 6387 6385
4 6388 6390 6391 6389
4 6392 6394 6395 6393
4 6396 6398 6399 6397
4 6400 6402 6403 6401
4 6404 6406 6407 6405
4 6408 6410 6411 6409
4 6412 6414 6415 6413
4 6416 6418 6419 6417
4 6420 6422 6423 6421
4 6424 6426 6427 6425
4 6428 6430 6431 6429
4 6432 6434 6435 6433
4 6436 6438 6439 6437
4 6440 6442 6443 6441
4 6444 6446 6447 6445
4 6448 6450 6451 6449
4 6452 6454 6455 6453
4 6456 6458 6459 6457
4 6460 6462 6463 6461
4 6464 6466 6467 6465
4 6468 6470 6471 6469
4 6472 6474 6475 6473
4 6476 6478 6479 6477
4 6480 6482 6483 6481
4 6484 6486 6487 6485
4 6488 6490 6491 6489
4 6492 6494 6495 6493
4 6496 6498 6499 6497
4 6500 6502 6503 6501
4 6504 6506 6507 6505
4 6508 6510 6511 6509
4 6512 6514 6515 6513
4 6516 6518 6519 6517
4 6520 6522 6523 6521
4 6524 6526 6527 6525
4 6528 6530 6531 6529
4 6532 6534 6535 6533
4 6536 6538 6539 6537
4 6540 6542 6543 6541
4 6544 6546 6547 6545
4 6548 6550 6551 6549
4 6552 6554 6555 6553
4 6556 6558 6559 6557
4 6560 6562 6563 6561
4 6564 6566 6567 6565
4 6568 6570 6571 6569
4 6572 6574 6575 6573
4 6576 6578 6579 6577
4 6580 6582 6583 6581
4 6584 6586 6587 6585
4 6588 6590 6591 6589
4 6592 6594 6595 6593
4 6596 6598 6599 6597
4 6600 6602 6603 6601
4 6604 6606 6607 6605
4 6608 6610 6611 6609
4 6612 6614 6615 6613
4 6616 6618 6619 6617
4 6620 6622 6623 6621
4 6624 6626 6627 6625
4 6628 6630 6631 6629
4 6632 6634 6635 6633
4 6636 6638 6639 6637
4 6640 6642 6643 6641
4 6644 6646 6647 6645
4 6648 6650 6651 6649
4 6652 6654 6655 6653
4 6656 6658 6659 6657
4 6660 6662 6663 6661
4 6664 6666 6667 6665
4 6668 6670 6671 6669
4 6672 6674 6675 6673
4 6676 6678 6679 6677
4 6680 6682 6683 6681
4 6684 6686 6687 6685
4 6688 6690 6691 6689
4 6692 6694 6695 6693
4 6696 6698 6699 6697
4 6700 6702 6703 6701
4 6704 6706 6707 6705
4 6708 6710 6711 6709
4 6712 6714 6715 6713
4 6716 6718 6719 6717
4 6720 6722 6723 6721
4 6724 6726 6727 6725
4 6728 6730 6731 6729
4 6732 6734 6735 6733
4 6736 6738 6739 6737
4 6740 6742 6743 6741
4 6744 6746 6747 6745
4 6748 6750 6751 6749
4 6752 6754 6755 6753
4 6756 6758 6759 6757
4 6760 6762 6763 6761
4 6764 6766 6767 6765
4 6768 6770 6771 6769
4 6772 6774 6775 6773
4 6776 6778 6779 6777
4 6780 6782 6783 6781
4 6784 6786 6787 6785
4 6788 6790 6791 6789
4 6792 6794 6795 6793
4 6796 6798 6799 6797
4 6800 6802 6803 6801
4 6804 6806 6807 6805
4 6808 6810 6811 6809
4 6812 6814 6815 6813
4 6816 6818 6819 6817
4 6820 6822 6823 6821
4 6824 6826 6827 6825
4 6828 6830 6831 6829
4 6832 6834 6835 6833
4 6836 6838 6839 6837
4 6840 6842 6843 6841
4 6844 6846 6847 6845
4 6848 6850 6851 6849
4 6852 6854 6855 6853
4 6856 6858 6859 6857
4 6860 6862 6863 6861
4 6864 6866 6867 6865
4 6868 6870 6871 6869
4 6872 6874 6875 6873
4 6876 6878 6879 6877
4 6880 6882 6883 6881
4 6884 6886 6887 6885
4 6888 6890 6891 6889
4 6892 6894 6895 6893
4 6896 6898 6899 6897
4 6900 6902 6903 6901
4 6904 6906 6907 6905
4 6908 6910 6911 6909
4 6912 6914 6915 6913
4 6916 6918 6919 6917
4 6920 6922 6923 6921
4 6924 6926 6927 6925
4 6928 6930 6931 6929
4 6932 6934 6935 6933
4 6936 6938 6939 6937
4 6940 6942 6943 6941
4 6944 6946 6947 6945
4 6948 6950 6951 6949
4 6952 6954 6955 6953
4 6956 6958 6959 6957
4 6960 6962 6963 6961
4 6964 6966 6967 6965
4 6968 6970 6971 6969
4 6972 6974 6975 6973
4 6976 6978 6979 6977
4 6980 6982 6983 6981
4 6984 6986 6987 6985
4 6988 6990 6991 6989
4 6992 6994 6995 6993
4 6996 6998 6999 6997
4 7000 7002 7003 7001
4 7004 7006 7007 7005
4 7008 7010 7011 7009
4 7012 7014 7015 7013
4 7016 7018 7019 7017
4 7020 7022 7023 7021
4 7024 7026 7027 7025
4 7028 7030 7031 7029
4 7032 7034 7035 7033
4 7036 7038 7039 7037
4 7040 7042 7043 7041
4 7044 7046 7047 7045
4 7048 7050 7051 7049
4 7052 7054 7055 7053
4 7056 7058 7059 7057
4 7060 7062 7063 7061
4 7064 7066 7067 7065
4 7068 7070 7071 7069
4 7072 7074 7075 7073
4 7076 7078 7079 7077
4 7080 7082 7083 7081
4 7084 7086 7087 7085
4 7088 7090 7091 7089
4 7092 7094 7095 7093
4 7096 7098 7099 7097
4 7100 7102 7103 7101
4 7104 7106 7107 7105
4 7108 7110 7111 7109
4 7112 7114 7115 7113
4 7116 7118 7119 7117
4 7120 7122 7123 7121
4 7124 7126 7127 7125
4 7128 7130 7131 7129
4 7132 7134 7135 7133
4 7136 7138 7139 7137
4 7140 7142 7143 7141
4 7144 7146 7147 7145
4 7148 7150 7151 7149
4 7152 7154 7155 7153
4 7156 7158 7159 7157
4 7160 7162 7163 7161
4 7164 7166 7167 7165
4 7168 7170 7171 7169
4 7172 7174 7175 7173
4 7176 7178 7179 7177
4 7180 7182 7183 7181
4 7184 7186 7187 7185
4 7188 7190 7191 7189
4 7192 7194 7195 7193
4 7196 7198 7199 7197
4 7200 7202 7203 7201
4 7204 7206 7207 7205
4 7208 7210 7211 7209
4 7212 7214 7215 7213
4 7216 7218 7219 7217
4 7220 7222 7223 7221
4 7224 7226 7227 7225
4 7228 7230 7231 7229
4 7232 7234 7235 7233
4 7236 7238 7239 7237
4 7240 7242 7243 7241
4 7244 7246 7247 7245
4 7248 7250 7251 7249
4 7252 7254 7255 7253
4 7256 7258 7259 7257
4 7260 7262 7263 7261
4 7264 7266 7267 7265
4 7268 7270 7271 7269
4 7272 7274 7275 7273
4 7276 7278 7279 7277
4 7280 7282 7283 7281
4 7284 7286 7287 7285
4 7288 7290 7291 7289
4 7292 7294 7295 7293
4 7296 7298 7299 7297
4 7300 7302 7303 7301
4 7304 7306 7307 7305
4 7308 7310 7311 7309
4 7312 7314 7315 7313
4 7316 7318 7319 7317
4 7320 7322 7323 7321
4 7324 7326 7327 7325
4 7328 7330 7331 7329
4 7332 7334 7335 7333
4 7336 7338 7339 7337
4 7340 7342 7343 7341
4 7344 7346 7347 7345
4 7348 7350 7351 7349
4 7352 7354 7355 7353
4 7356 7358 7359 7357
4 7360 7362 7363 7361
4 7364 7366 7367 7365
4 7368 7370 7371 7369
4 7372 7374 7375 7373
4 7376 7378 7379 7377
4 7380 7382 7383 7381
4 7384 7386 7387 7385
4 7388 7390 7391 7389
4 7392 7394 7395 7393
4 7396 7398 7399 7397
4 7400 7402 7403 7401
4 7404 7406 7407 7405
4 7408 7410 7411 7409
4 7412 7414 7415 7413
4 7416 7418 7419 7417
4 7420 7422 7423 7421
4 7424 7426 7427 7425
4 7428 7430 7431 7429
4 7432 7434 7435 7433
4 7436 7438 7439 7437
4 7440 7442 7443 7441
4 7444 7446 7447 7445
4 7448 7450 7451 7449
4 7452 7454 7455 7453
4 7456 7458 7459 7457
4 7460 7462 7463 7461
4 7464 7466 7467 7465
4 7468 7470 7471 7469
4 7472 7474 7475 7473
4 7476 7478 7479 7477
4 7480 7482 7483 7481
4 7484 7486 7487 7485
4 7488 7490 7491 7489
4 7492 7494 7495 7493
4 7496 7498 7499 7497
4 7500 7502 7503 7501
4 7504 7506 7507 7505
4 7508 7510 7511 7509
4 7512 7514 7515 7513
4 7516 7518 7519 7517
4 7520 7522 7523 7521
4 7524 7526 7527 7525
4 7528 7530 7531 7529
4 7532 7534 7535 7533
4 7536 7538 7539 7537
4 7540 7542 7543 7541
4 7544 7546 7547 7545
4 7548 7550 7551 7549
4 7552 7554 7555 7553
4 7556 7558 7559 7557
4 7560 7562 7563 7561
4 7564 7566 7567 7565
4 7568 7570 7571 7569
4 7572 7574 7575 7573
4 7576 7578 7579 7577
4 7580 7582 7583 7581
4 7584 7586 7587 7585
4 7588 7590 7591 7589
4 7592 7594 7595 7593
4 7596 7598 7599 7597
4 7600 7602 7603 7601
4 7604 7606 7607 7605
4 7608 7610 7611 7609
4 7612 7614 7615 7613
4 7616 7618 7619 7617
4 7620 7622 7623 7621
4 7624 7626 7627 7625
4 7628 7630 7631 7629
4 7632 7634 7635 7633
4 7636 7638 7639 7637
4 7640 7642 7643 7641
4 7644 7646 7647 7645
4 7648 7650 7651 7649
4 7652 7654 7655 7653
4 7656 7658 7659 7657
4 7660 7662 7663 7661
4 7664 7666 7667 7665
4 7668 7670 7671 7669
4 7672 7674 7675 7673
4 7676 7678 7679 7677
4 7680 7682 7683 7681
4 7684 7686 7687 7685
4 7688 7690 7691 7689
4 7692 7694 7695 7693
4 7696 7698 7699 7697
4 7700 7702 7703 7701
4 7704 7706 7707 7705
4 7708 7710 7711 7709
4 7712 7714 7715 7713
4 7716 7718 7719 7717
4 7720 7722 7723 7721
4 7724 7726 7727 7725
4 7728 7730 7731 7729
4 7732 7734 7735 7733
4 7736 7738 7739 7737
4 7740 7742 7743 7741
4 7744 7746 7747 7745
4 7748 7750 7751 7749
4 7752 7754 7755 7753
4 7756 7758 7759 7757
4 7760 7762 7763 7761
4 7764 7766 7767 7765
4 7768 7770 7771 7769
4 7772 7774 7775 7773
4 7776 7778 7779 7777
4 7780 7782 7783 7781
4 7784 7786 7787 7785
4 7788 7790 7791 7789
4 7792 7794 7795 7793
4 7796 7798 7799 7797
4 7800 7802 7803 7801
4 7804 7806 7807 7805
4 7808 7810 7811 7809
4 7812 7814 7815 7813
4 7816 7818 7819 7817
4 7820 7822 7823 7821
4 7824 7826 7827 7825
4 7828 7830 7831 7829
4 7832 7834 7835 7833
4 7836 7838 7839 7837
4 7840 7842 7843 7841
4 7844 7846 7847 7845
4 7848 7850 7851 7849
4 7852 7854 7855 7853
4 7856 7858 7859 7857
4 7860 7862 7863 7861
4 7864 7866 7867 7865
4 7868 7870 7871 7869
4 7872 7874 7875 7873
4 7876 7878 7879 7877
4 7880 7882 7883 7881
4 7884 7886 7887 7885
4 7888 7890 7891 7889
4 7892 7894 7895 7893
4 7896 7898 7899 7897
4 7900 7902 7903 7901
4 7904 7906 7907 7905
4 7908 7910 7911 7909
4 7912 7914 7915 7913
4 7916 7918 7919 7917
4 7920 7922 7923 7921
4 7924 7926 7927 7925
4 7928 7930 7931 7929
4 7932 7934 7935 7933
4 7936 7938 7939 7937
4 7940 7942 7943 7941
4 7944 7946 7947 7945
4 7948 7950 7951 7949
4 7952 7954 7955 7953
4 7956 7958 7959 7957
4 7960 7962 7963 7961
4 7964 7966 7967 7965
4 7968 7970 7971 7969
4 7972 7974 7975 7973
4 7976 7978 7979 7977
4 7980 7982 7983 7981
4 7984 7986 7987 7985
4 7988 7990 7991 7989
4 7992 7994 7995 7993
4 7996 7998 7999 7997
4 8000 8002 8003 8001
4 8004 8006 8007 8005
4 8008 8010 8011 8009
4 8012 8014 8015 8013
4 8016 8018 8019 8017
4 8020 8022 8023 8021
4 8024 8026 8027 8025
4 8028 8030 8031 8029
4 8032 8034 8035 8033
4 8036 8038 8039 8037
4 8040 8042 8043 8041
4 8044 8046 8047 8045
4 8048 8050 8051 8049
4 8052 8054 8055 8053
4 8056 8058 8059 8057
4 8060 8062 8063 8061
4 8064 8066 8067 8065
4 8068 8070 8071 8069
4 8072 8074 8075 8073
4 8076 8078 8079 8077
4 8080 8082 8083 8081
4 8084 8086 8087 8085
4 8088 8090 8091 8089
4 8092 8094 8095 8093
4 8096 8098 8099 8097
4 8100 8102 8103 8101
4 8104 8106 8107 8105
4 8108 8110 8111 8109
4 8112 8114 8115 8113
4 8116 8118 8119 8117
4 8120 8122 8123 8121
4 8124 8126 8127 8125
4 8128 8130 8131 8129
4 8132 8134 8135 8133
4 8136 8138 8139 8137
4 8140 8142 8143 8141
4 8144 8146 8147 8145
4 8148 8150 8151 8149
4 8152 8154 8155 8153
4 8156 8158 8159 8157
4 8160 8162 8163 8161
4 8164 8166 8167 8165
4 8168 8170 8171 8169
4 8172 8174 8175 8173
4 8176 8178 8179 8177
4 8180 8182 8183 8181
4 8184 8186 8187 8185
4 8188 8190 8191 8189
4 8192 8194 8195 8193
4 8196 8198 8199 8197
4 8200 8202 8203 8201
4 8204 8206 8207 8205
4 8208 8210 8211 8209
4 8212 8214 8215 8213
4 8216 8218 8219 8217
4 8220 8222 8223 8221
4 8224 8226 8227 8225
4 8228 8230 8231 8229
4 8232 8234 8235 8233
4 8236 8238 8239 8237
4 8240 8242 8243 8241
4 8244 8246 8247 8245
4 8248 8250 8251 8249
4 8252 8254 8255 8253
4 8256 8258 8259 8257
4 8260 8262 8263 8261
4 8264 8266 8267 8265
4 8268 8270 8271 8269
4 8272 8274 8275 8273
4 8276 8278 8279 8277
4 8280 8282 8283 8281
4 8284 8286 8287 8285
4 8288 8290 8291 8289
4 8292 8294 8295 8293
4 8296 8298 8299 8297
4 8300 8302 8303 8301
4 8304 8306 8307 8305
4 8308 8310 8311 8309
4 8312 8314 8315 8313
4 8316 8318 8319 8317
4 8320 8322 8323 8321
4 8324 8326 8327 8325
4 8328 8330 8331 8329
4 8332 8334 8335 8333
4 8336 8338 8339 8337
4 8340 8342 8343 8341
4 8344 8346 8347 8345
4 8348 8350 8351 8349
4 8352 8354 8355 8353
4 8356 8358 8359 8357
4 8360 8362 8363 8361
4 8364 8366 8367 8365
4 8368 8370 8371 8369
4 8372 8374 8375 8373
4 8376 8378 8379 8377
4 8380 8382 8383 8381
4 8384 8386 8387 8385
4 8388 8390 8391 8389
4 8392 8394 8395 8393
4 8396 8398 8399 8397
4 8400 8402 8403 8401
4 8404 8406 8407 8405
4 8408 8410 8411 8409
4 8412 8414 8415 8413
4 8416 8418 8419 8417
4 8420 8422 8423 8421
4 8424 8426 8427 8425
4 8428 8430 8431 8429
4 8432 8434 8435 8433
4 8436 8438 8439 8437
4 8440 8442 8443 8441
4 8444 8446 8447 8445
4 8448 8450 8451 8449
4 8452 8454 8455 8453
4 8456 8458 8459 8457
4 8460 8462 8463 8461
4 8464 8466 8467 8465
4 8468 8470 8471 8469
4 8472 8474 8475 8473
4 8476 8478 8479 8477
4 8480 8482 8483 8481
4 8484 8486 8487 8485
4 8488 8490 8491 8489
4 8492 8494 8495 8493
4 8496 8498 8499 8497
4 8500 8502 8503 8501
4 8504 8506 8507 8505
4 8508 8510 8511 8509
4 8512 8514 8515 8513
4 8516 8518 8519 8517
4 8520 8522 8523 8521
4 8524 8526 8527 8525
4 8528 8530 8531 8529
4 8532 8534 8535 8533
4 8536 8538 8539 8537
4 8540 8542 8543 8541
4 8544 8546 8547 8545
4 8548 8550 8551 8549
4 8552 8554 8555 8553
4 8556 8558 8559 8557
4 8560 8562 8563 8561
4 8564 8566 8567 8565
4 8568 8570 8571 8569
4 8572 8574 8575 8573
4 8576 8578 8579 8577
4 8580 8582 8583 8581
4 8584 8586 8587 8585
4 8588 8590 8591 8589
4 8592 8594 8595 8593
4 8596 8598 8599 8597
4 8600 8602 8603 8601
4 8604 8606 8607 8605
4 8608 8610 8611 8609
4 8612 8614 8615 8613
4 8616 8618 8619 8617
4 8620 8622 8623 8621
4 8624 8626 8627 8625
4 8628 8630 8631 8629
4 8632 8634 8635 8633
4 8636 8638 8639 8637
4 8640 8642 8643 8641
4 8644 8646 8647 8645
4 8648 8650 8651 8649
4 8652 8654 8655 8653
4 8656 8658 8659 8657
4 8660 8662 8663 8661
4 8664 8666 8667 8665
4 8668 8670 8671 8669
4 8672 8674 8675 8673
4 8676 8678 8679 8677
4 8680 8682 8683 8681
4 8684 8686 8687 8685
4 8688 8690 8691 8689
4 8692 8694 8695 8693
4 8696 8698 8699 8697
4 8700 8702 8703 8701
4 8704 8706 8707 8705
4 8708 8710 8711 8709
4 8712 8714 8715 8713
4 8716 8718 8719 8717
4 8720 8722 8723 8721
4 8724 8726 8727 8725
4 8728 8730 8731 8729
4 8732 8734 8735 8733
4 8736 8738 8739 8737
4 8740 8742 8743 8741
4 8744 8746 8747 8745
4 8748 8750 8751 8749
4 8752 8754 8755 8753
4 8756 8758 8759 8757
4 8760 8762 8763 8761
4 8764 8766 8767 8765
4 8768 8770 8771 8769
4 8772 8774 8775 8773
4 8776 8778 8779 8777
4 8780 8782 8783 8781
4 8784 8786 8787 8785
4 8788 8790 8791 8789
4 8792 8794 8795 8793
4 8796 8798 8799 8797
4 8800 8802 8803 8801
4 8804 8806 8807 8805
4 8808 8810 8811 8809
4 8812 8814 8815 8813
4 8816 8818 8819 8817
4 8820 8822 8823 8821
4 8824 8826 8827 8825
4 8828 8830 8831 8829
4 8832 8834 8835 8833
4 8836 8838 8839 8837
4 8840 8842 8843 8841
4 8844 8846 8847 8845
4 8848 8850 8851 8849
4 8852 8854 8855 8853
4 8856 8858 8859 8857
4 8860 8862 8863 8861
4 8864 8866 8867 8865
4 8868 8870 8871 8869
4 8872 8874 8875 8873
4 8876 8878 8879 8877
4 8880 8882 8883 8881
4 8884 8886 8887 8885
4 8888 8890 8891 8889
4 8892 8894 8895 8893
4 8896 8898 8899 8897
4 8900 8902 8903 8901
4 8904 8906 8907 8905
4 8908 8910 8911 8909
4 8912 8914 8915 8913
4 8916 8918 8919 8917
4 8920 8922 8923 8921
4 8924 8926 8927 8925
4 8928 8930 8931 8929
4 8932 8934 8935 8933
4 8936 8938 8939 8937
4 8940 8942 8943 8941
4 8944 8946 8947 8945
4 8948 8950 8951 8949
4 8952 8954 8955 8953
4 8956 8958 8959 8957
4 8960 8962 8963 8961
4 8964 8966 8967 8965
4 8968 8970 8971 8969
4 8972 8974 8975 8973
4 8976 8978 8979 8977
4 8980 8982 8983 8981
4 8984 8986 8987 8985
4 8988 8990 8991 8989
4 8992 8994 8995 8993
4 8996 8998 8999 8997
4 9000 9002 9003 9001
4 9004 9006 9007 9005
4 9008 9010 9011 9009
4 9012 9014 9015 9013
4 9016 9018 9019 9017
4 9020 9022 9023 9021
4 9024 9026 9027 9025
4 9028 9030 9031 9029
4 9032 9034 9035 9033
4 9036 9038 9039 9037
4 9040 9042 9043 9041
4 9044 9046 9047 9045
4 9048 9050 9051 9049
4 9052 9054 9055 9053
4 9056 9058 9059 9057
4 9060 9062 9063 9061
4 9064 9066 9067 9065
4 9068 9070 9071 9069
4 9072 9074 9075 9073
4 9076 9078 9079 9077
4 9080 9082 9083 9081
4 9084 9086 9087 9085
4 9088 9090 9091 9089
4 9092 9094 9095 9093
4 9096 9098 9099 9097
4 9100 9102 9103 9101
4 9104 9106 9107 9105
4 9108 9110 9111 9109
4 9112 9114 9115 9113
4 9116 9118 9119 9117
4 9120 9122 9123 9121
4 9124 9126 9127 9125
4 9128 9130 9131 9129
4 9132 9134 9135 9133
4 9136 9138 9139 9137
4 9140 9142 9143 9141
4 9144 9146 9147 9145
4 9148 9150 9151 9149
4 9152 9154 9155 9153
4 9156 9158 9159 9157
4 9160 9162 9163 9161
4 9164 9166 9167 9165
4 9168 9170 9171 9169
4 9172 9174 9175 9173
4 9176 9178 9179 9177
4 9180 9182 9183 9181
4 9184 9186 9187 9185
4 9188 9190 9191 9189
4 9192 9194 9195 9193
4 9196 9198 9199 9197
4 9200 9202 9203 9201
4 9204 9206 9207 9205
4 9208 9210 9211 9209
4 9212 9214 9215 9213
4 9216 9218 9219 9217
4 9220 9222 9223 9221
4 9224 9226 9227 9225
4 9228 9230 9231 9229
4 9232 9234 9235 9233
4 9236 9238 9239 9237
4 9240 9242 9243 9241
4 9244 9246 9247 9245
4 9248 9250 9251 9249
4 9252 9254 9255 9253
4 9256 9258 9259 9257
4 9260 9262 9263 9261
4 9264 9266 9267 9265
4 9268 9270 9271 9269
4 9272 9274 9275 9273
4 9276 9278 9279 9277
4 9280 9282 9283 9281
4 9284 9286 9287 9285
4 9288 9290 9291 9289
4 9292 9294 9295 9293
4 9296 9298 9299 9297
4 9300 9302 9303 9301
4 9304 9306 9307 9305
4 9308 9310 9311 9309
4 9312 9314 9315 9313
4 9316 9318 9319 9317
4 9320 9322 9323 9321
4 9324 9326 9327 9325
4 9328 9330 9331 9329
4 9332 9334 9335 9333
4 9336 9338 9339 9337
4 9340 9342 9343 9341
4 9344 9346 9347 9345
4 9348 9350 9351 9349
4 9352 9354 9355 9353
4 9356 9358 9359 9357
4 9360 9362 9363 9361
4 9364 9366 9367 9365
4 9368 9370 9371 9369
4 9372 9374 9375 9373
4 9376 9378 9379 9377
4 9380 9382 9383 9381
4 9384 9386 9387 9385
4 9388 9390 9391 9389
4 9392 9394 9395 9393
4 9396 9398 9399 9397
4 9400 9402 9403 9401
4 9404 9406 9407 9405
4 9408 9410 9411 9409
4 9412 9414 9415 9413
4 9416 9418 9419 9417
4 9420 9422 9423 9421
4 9424 9426 9427 9425
4 9428 9430 9431 9429
4 9432 9434 9435 9433
4 9436 9438 9439 9437
4 9440 9442 9443 9441
4 9444 9446 9447 9445
4 9448 9450 9451 9449
4 9452 9454 9455 9453
4 9456 9458 9459 9457
4 9460 9462 9463 9461
4 9464 9466 9467 9465
4 9468 9470 9471 9469
4 9472 9474 9475 9473
4 9476 9478 9479 9477
4 9480 9482 9483 9481
4 9484 9486 9487 9485
4 9488 9490 9491 9489
4 9492 9494 9495 9493
4 9496 9498 9499 9497
4 9500 9502 9503 9501
4 9504 9506 9507 9505
4 9508 9510 9511 9509
4 9512 9514 9515 9513
4 9516 9518 9519 9517
4 9520 9522 9523 9521
4 9524 9526 9527 9525
4 9528 9530 9531 9529
4 9532 9534 9535 9533
4 9536 9538 9539 9537
4 9540 9542 9543 9541
4 9544 9546 9547 9545
4 9548 9550 9551 9549
4 9552 9554 9555 9553
4 9556 9558 9559 9557
4 9560 9562 9563 9561
4 9564 9566 9567 9565
4 9568 9570 9571 9569
4 9572 9574 9575 9573
4 9576 9578 9579 9577
4 9580 9582 9583 9581
4 9584 9586 9587 9585
4 9588 9590 9591 9589
4 9592 9594 9595 9593
4 9596 9598 9599 9597
4 9600 9602 9603 9601
4 9604 9606 9607 9605
4 9608 9610 9611 9609
4 9612 9614 9615 9613
4 9616 9618 9619 9617
4 9620 9622 9623 9621
4 9624 9626 9627 9625
4 9628 9630 9631 9629
4 9632 9634 9635 9633
4 9636 9638 9639 9637
4 9640 9642 9643 9641
4 9644 9646 9647 9645
4 9648 9650 9651 9649
4 9652 9654 9655 9653
4 9656 9658 9659 9657
4 9660 9662 9663 9661
4 9664 9666 9667 9665
4 9668 9670 9671 9669
4 9672 9674 9675 9673
4 9676 9678 9679 9677
4 9680 9682 9683 9681
4 9684 9686 9687 9685
4 9688 9690 9691 9689
4 9692 9694 9695 9693
4 9696 9698 9699 9697
4 9700 9702 9703 9701
4 9704 9706 9707 9705
4 9708 9710 9711 9709
4 9712 9714 9715 9713
4 9716 9718 9719 9717
4 9720 9722 9723 9721
4 9724 9726 9727 9725
4 9728 9730 9731 9729
4 9732 9734 9735 9733
4 9736 9738 9739 9737
4 9740 9742 9743 9741
4 9744 9746 9747 9745
4 9748 9750 9751 9749
4 9752 9754 9755 9753
4 9756 9758 9759 9757
4 9760 9762 9763 9761
4 9764 9766 9767 9765
4 9768 9770 9771 9769
4 9772 9774 9775 9773
4 9776 9778 9779 9777
4 9780 9782 9783 9781
4 9784 9786 9787 9785
4 9788 9790 9791 9789
4 9792 9794 9795 9793
4 9796 9798 9799 9797
4 9800 9802 9803 9801
4 9804 9806 9807 9805
4 9808 9810 9811 9809
4 9812 9814 9815 9813
4 9816 9818 9819 9817
4 9820 9822 9823 9821
4 9824 9826 9827 9825
4 9828 9830 9831 9829
4 9832 9834 9835 9833
4 9836 9838 9839 9837
4 9840 9842 9843 9841
4 9844 9846 9847 9845
4 9848 9850 9851 9849
4 9852 9854 9855 9853
4 9856 9858 9859 9857
4 9860 9862 9863 9861
4 9864 9866 9867 9865
4 9868 9870 9871 9869
4 9872 9874 9875 9873
4 9876 9878 9879 9877
4 9880 9882 9883 9881
4 9884 9886 9887 9885
4 9888 9890 9891 9889
4 9892 9894 9895 9893
4 9896 9898 9899 9897
4 9900 9902 9903 9901
4 9904 9906 9907 9905
4 9908 9910 9911 9909
4 9912 9914 9915 9913
4 9916 9918 9919 9917
4 9920 9922 9923 9921
4 9924 9926 9927 9925
4 9928 9930 9931 9929
4 9932 9934 9935 9933
4 9936 9938 9939 9937
4 9940 9942 9943 9941
4 9944 9946 9947 9945
4 9948 9950 9951 9949
4 9952 9954 9955 9953
4 9956 9958 9959 9957
4 9960 9962 9963 9961
4 9964 9966 9967 9965
4 9968 9970 9971 9969
4 9972 9974 9975 9973
4 9976 9978 9979 9977
4 9980 9982 9983 9981
4 9984 9986 9987 9985
4 9988 9990 9991 9989
4 9992 9994 9995 9993
4 9996 9998 9999 9997
4 10000 10002 10003 10001
4 10004 10006 10007 10005
4 10008 10010 10011 10009
4 10012 10014 10015 10013
4 10016 10018 10019 10017
4 10020 10022 10023 10021
4 10024 10026 10027 10025
4 10028 10030 10031 10029
4 10032 10034 10035 10033
4 10036 10038 10039 10037
4 10040 10042 10043 10041
4 10044 10046 10047 10045
4 10048 10050 10051 10049
4 10052 10054 10055 10053
4 10056 10058 10059 10057
4 10060 10062 10063 10061
4 10064 10066 10067 10065
4 10068 10070 10071 10069
4 10072 10074 10075 10073
4 10076 10078 10079 10077
4 10080 10082 10083 10081
4 10084 10086 10087 10085
4 10088 10090 10091 10089
4 10092 10094 10095 10093
4 10096 10098 10099 10097
4 10100 10102 10103 10101
4 10104 10106 10107 10105
4 10108 10110 10111 10109
4 10112 10114 10115 10113
4 10116 10118 10119 10117
4 10120 10122 10123 10121
4 10124 10126 10127 10125
4 10128 10130 10131 10129
4 10132 10134 10135 10133
4 10136 10138 10139 10137
4 10140 10142 10143 10141
4 10144 10146 10147 10145
4 10148 10150 10151 10149
4 10152 10154 10155 10153
4 10156 10158 10159 10157
4 10160 10162 10163 10161
4 10164 10166 10167 10165
4 10168 10170 10171 10169
4 10172 10174 10175 10173
4 10176 10178 10179 10177
4 10180 10182 10183 10181
4 10184 10186 10187 10185
4 10188 10190 10191 10189
4 10192 10194 10195 10193
4 10196 10198 10199 10197
4 10200 10202 10203 10201
4 10204 10206 10207 10205
4 10208 10210 10211 10209
4 10212 10214 10215 10213
4 10216 10218 10219 10217
4 10220 10222 10223 10221
4 10224 10226 10227 10225
4 10228 10230 10231 10229
4 10232 10234 10235 10233
4 10236 10238 10239 10237
4 10240 10242 10243 10241
4 10244 10246 10247 10245
4 10248 10250 10251 10249
4 10252 10254 10255 10253
4 10256 10258 10259 10257
4 10260 10262 10263 10261
4 10264 10266 10267 10265
4 10268 10270 10271 10269
4 10272 10274 10275 10273
4 10276 10278 10279 10277
4 10280 10282 10283 10281
4 10284 10286 10287 10285
4 10288 10290 10291 10289
4 10292 10294 10295 10293
4 10296 10298 10299 10297
4 10300 10302 10303 10301
4 10304 10306 10307 10305
4 10308 10310 10311 10309
4 10312 10314 10315 10313
4 10316 10318 10319 10317
4 10320 10322 10323 10321
4 10324 10326 10327 10325
4 10328 10330 10331 10329
4 10332 10334 10335 10333
4 10336 10338 10339 10337
4 10340 10342 10343 10341
4 10344 10346 10347 10345
4 10348 10350 10351 10349
4 10352 10354 10355 10353
4 10356 10358 10359 10357
4 10360 10362 10363 10361
4 10364 10366 10367 10365
4 10368 10370 10371 10369
4 10372 10374 10375 10373
4 10376 10378 10379 10377
4 10380 10382 10383 10381
4 10384 10386 10387 10385
4 10388 10390 10391 10389
4 10392 10394 10395 10393
4 10396 10398 10399 10397
4 10400 10402 10403 10401
4 10404 10406 10407 10405
4 10408 10410 10411 10409
4 10412 10414 10415 10413
4 10416 10418 10419 10417
4 10420 10422 10423 10421
4 10424 10426 10427 10425
4 10428 10430 10431 10429
4 10432 10434 10435 10433
4 10436 10438 10439 10437
4 10440 10442 10443 10441
4 10444 10446 10447 10445
4 10448 10450 10451 10449
4 10452 10454 10455 10453
4 10456 10458 10459 10457
4 10460 10462 10463 10461
4 10464 10466 10467 10465
4 10468 10470 10471 10469
4 10472 10474 10475 10473
4 10476 10478 10479 10477
4 10480 10482 10483 10481
4 10484 10486 10487 10485
4 10488 10490 10491 10489
4 10492 10494 10495 10493
4 10496 10498 10499 10497
4 10500 10502 10503 10501
4 10504 10506 10507 10505
4 10508 10510 10511 10509
4 10512 10514 10515 10513
4 10516 10518 10519 10517
4 10520 10522 10523 10521
4 10524 10526 10527 10525
4 10528 10530 10531 10529
4 10532 10534 10535 10533
4 10536 10538 10539 10537
4 10540 10542 10543 10541
4 10544 10546 10547 10545
4 10548 10550 10551 10549
4 10552 10554 10555 10553
4 10556 10558 10559 10557
4 10560 10562 10563 10561
4 10564 10566 10567 10565
4 10568 10570 10571 10569
4 10572 10574 10575 10573
4 10576 10578 10579 10577
4 10580 10582 10583 10581
4 10584 10586 10587 10585
4 10588 10590 10591 10589
4 10592 10594 10595 10593
4 10596 10598 10599 10597
4 10600 10602 10603 10601
4 10604 10606 10607 10605
4 10608 10610 10611 10609
4 10612 10614 10615 10613
4 10616 10618 10619 10617
4 10620 10622 10623 10621
4 10624 10626 10627 10625
4 10628 10630 10631 10629
4 10632 10634 10635 10633
4 10636 10638 10639 10637
4 10640 10642 10643 10641
4 10644 10646 10647 10645
4 10648 10650 10651 10649
4 10652 10654 10655 10653
4 10656 10658 10659 10657
4 10660 10662 10663 10661
4 10664 10666 10667 10665
4 10668 10670 10671 10669
4 10672 10674 10675 10673
4 10676 10678 10679 10677
4 10680 10682 10683 10681
4 10684 10686 10687 10685
4 10688 10690 10691 10689
4 10692 10694 10695 10693
4 10696 10698 10699 10697
4 10700 10702 10703 10701
4 10704 10706 10707 10705
4 10708 10710 10711 10709
4 10712 10714 10715 10713
4 10716 10718 10719 10717
4 10720 10722 10723 10721
4 10724 10726 10727 10725
4 10728 10730 10731 10729
4 10732 10734 10735 10733
4 10736 10738 10739 10737
4 10740 10742 10743 10741
4 10744 10746 10747 10745
4 10748 10750 10751 10749
4 10752 10754 10755 10753
4 10756 10758 10759 10757
4 10760 10762 10763 10761
4 10764 10766 10767 10765
4 10768 10770 10771 10769
4 10772 10774 10775 10773
4 10776 10778 10779 10777
4 10780 10782 10783 10781
4 10784 10786 10787 10785
4 10788 10790 10791 10789
4 10792 10794 10795 10793
4 10796 10798 10799 10797
4 10800 10802 10803 10801
4 10804 10806 10807 10805
4 10808 10810 10811 10809
4 10812 10814 10815 10813
4 10816 10818 10819 10817
4 10820 10822 10823 10821
4 10824 10826 10827 10825
4 10828 10830 10831 10829
4 10832 10834 10835 10833
4 10836 10838 10839 10837
4 10840 10842 10843 10841
4 10844 10846 10847 10845
4 10848 10850 10851 10849
4 10852 10854 10855 10853
4 10856 10858 10859 10857
4 10860 10862 10863 10861
4 10864 10866 10867 10865
4 10868 10870 10871 10869
4 10872 10874 10875 10873
4 10876 10878 10879 10877
4 10880 10882 10883 10881
4 10884 10886 10887 10885
4 10888 10890 10891 10889
4 10892 10894 10895 10893
4 10896 10898 10899 10897
4 10900 10902 10903 10901
4 10904 10906 10907 10905
4 10908 10910 10911 10909
4 10912 10914 10915 10913
4 10916 10918 10919 10917
4 10920 10922 10923 10921
4 10924 10926 10927 10925
4 10928 10930 10931 10929
4 10932 10934 10935 10933
4 10936 10938 10939 10937
4 10940 10942 10943 10941
4 10944 10946 10947 10945
4 10948 10950 10951 10949
4 10952 10954 10955 10953
4 10956 10958 10959 10957
4 10960 10962 10963 10961
4 10964 10966 10967 10965
4 10968 10970 10971 10969
4 10972 10974 10975 10973
4 10976 10978 10979 10977
4 10980 10982 10983 10981
4 10984 10986 10987 10985
4 10988 10990 10991 10989
4 10992 10994 10995 10993
4 10996 10998 10999 10997
4 11000 11002 11003 11001
4 11004 11006 11007 11005
4 11008 11010 11011 11009
4 11012 11014 11015 11013
4 11016 11018 11019 11017
4 11020 11022 11023 11021
4 11024 11026 11027 11025
4 11028 11030 11031 11029
4 11032 11034 11035 11033
4 11036 11038 11039 11037
4 11040 11042 11043 11041
4 11044 11046 11047 11045
4 11048 11050 11051 11049
4 11052 11054 11055 11053
4 11056 11058 11059 11057
4 11060 11062 11063 11061
4 11064 11066 11067 11065
4 11068 11070 11071 11069
4 11072 11074 11075 11073
4 11076 11078 11079 11077
4 11080 11082 11083 11081
4 11084 11086 11087 11085
4 11088 11090 11091 11089
4 11092 11094 11095 11093
4 11096 11098 11099 11097
4 11100 11102 11103 11101
4 11104 11106 11107 11105
4 11108 11110 11111 11109
4 11112 11114 11115 11113
4 11116 11118 11119 11117
4 11120 11122 11123 11121
4 11124 11126 11127 11125
4 11128 11130 11131 11129
4 11132 11134 11135 11133
4 11136 11138 11139 11137
4 11140 11142 11143 11141
4 11144 11146 11147 11145
4 11148 11150 11151 11149
4 11152 11154 11155 11153
4 11156 11158 11159 11157
4 11160 11162 11163 11161
4 11164 11166 11167 11165
4 11168 11170 11171 11169
4 11172 11174 11175 11173
4 11176 11178 11179 11177
4 11180 11182 11183 11181
4 11184 11186 11187 11185
4 11188 11190 11191 11189
4 11192 11194 11195 11193
4 11196 11198 11199 11197
4 11200 11202 11203 11201
4 11204 11206 11207 11205
4 11208 11210 11211 11209
4 11212 11214 11215 11213
4 11216 11218 11219 11217
4 11220 11222 11223 11221
4 11224 11226 11227 11225
4 11228 11230 11231 11229
4 11232 11234 11235 11233
4 11236 11238 11239 11237
4 11240 11242 11243 11241
4 11244 11246 11247 11245
4 11248 11250 11251 11249
4 11252 11254 11255 11253
4 11256 11258 11259 11257
4 11260 11262 11263 11261
4 11264 11266 11267 11265
4 11268 11270 11271 11269
4 11272 11274 11275 11273
4 11276 11278 11279 11277
4 11280 11282 11283 11281
4 11284 11286 11287 11285
4 11288 11290 11291 11289
4 11292 11294 11295 11293
4 11296 11298 11299 11297
4 11300 11302 11303 11301
4 11304 11306 11307 11305
4 11308 11310 11311 11309
4 11312 11314 11315 11313
4 11316 11318 11319 11317
4 11320 11322 11323 11321
4 11324 11326 11327 11325
4 11328 11330 11331 11329
4 11332 11334 11335 11333
4 11336 11338 11339 11337
4 11340 11342 11343 11341
4 11344 11346 11347 11345
4 11348 11350 11351 11349
4 11352 11354 11355 11353
4 11356 11358 11359 11357
4 11360 11362 11363 11361
4 11364 11366 11367 11365
4 11368 11370 11371 11369
4 11372 11374 11375 11373
4 11376 11378 11379 11377
4 11380 11382 11383 11381
4 11384 11386 11387 11385
4 11388 11390 11391 11389
4 11392 11394 11395 11393
4 11396 11398 11399 11397
4 11400 11402 11403 11401
4 11404 11406 11407 11405
4 11408 11410 11411 11409
4 11412 11414 11415 11413
4 11416 11418 11419 11417
4 11420 11422 11423 11421
4 11424 11426 11427 11425
4 11428 11430 11431 11429
4 11432 11434 11435 11433
4 11436 11438 11439 11437
4 11440 11442 11443 11441
4 11444 11446 11447 11445
4 11448 11450 11451 11449
4 11452 11454 11455 11453
4 11456 11458 11459 11457
4 11460 11462 11463 11461
4 11464 11466 11467 11465
4 11468 11470 11471 11469
4 11472 11474 11475 11473
4 11476 11478 11479 11477
4 11480 11482 11483 11481
4 11484 11486 11487 11485
4 11488 11490 11491 11489
4 11492 11494 11495 11493
4 11496 11498 11499 11497
4 11500 11502 11503 11501
4 11504 11506 11507 11505
4 11508 11510 11511 11509
4 11512 11514 11515 11513
4 11516 11518 11519 11517
4 11520 11522 11523 11521
4 11524 11526 11527 11525
4 11528 11530 11531 11529
4 11532 11534 11535 11533
4 11536 11538 11539 11537
4 11540 11542 11543 11541
4 11544 11546 11547 11545
4 11548 11550 11551 11549
4 11552 11554 11555 11553
4 11556 11558 11559 11557
4 11560 11562 11563 11561
4 11564 11566 11567 11565
4 11568 11570 11571 11569
4 11572 11574 11575 11573
4 11576 11578 11579 11577
4 11580 11582 11583 11581
4 11584 11586 11587 11585
4 11588 11590 11591 11589
4 11592 11594 11595 11593
4 11596 11598 11599 11597
4 11600 11602 11603 11601
4 11604 11606 11607 11605
4 11608 11610 11611 11609
4 11612 11614 11615 11613
4 11616 11618 11619 11617
4 11620 11622 11623 11621
4 11624 11626 11627 11625
4 11628 11630 11631 11629
4 11632 11634 11635 11633
4 11636 11638 11639 11637
4 11640 11642 11643 11641
4 11644 11646 11647 11645
4 11648 11650 11651 11649
4 11652 11654 11655 11653
4 11656 11658 11659 11657
4 11660 11662 11663 11661
4 11664 11666 11667 11665
4 11668 11670 11671 11669
4 11672 11674 11675 11673
4 11676 11678 11679 11677
4 11680 11682 11683 11681
4 11684 11686 11687 11685
4 11688 11690 11691 11689
4 11692 11694 11695 11693
4 11696 11698 11699 11697
4 11700 11702 11703 11701
4 11704 11706 11707 11705
4 11708 11710 11711 11709
4 11712 11714 11715 11713
4 11716 11718 11719 11717
4 11720 11722 11723 11721
4 11724 11726 11727 11725
4 11728 11730 11731 11729
4 11732 11734 11735 11733
4 11736 11738 11739 11737
4 11740 11742 11743 11741
4 11744 11746 11747 11745
4 11748 11750 11751 11749
4 11752 11754 11755 11753
4 11756 11758 11759 11757
4 11760 11762 11763 11761
4 11764 11766 11767 11765
4 11768 11770 11771 11769
4 11772 11774 11775 11773
4 11776 11778 11779 11777
4 11780 11782 11783 11781
4 11784 11786 11787 11785
4 11788 11790 11791 11789
4 11792 11794 11795 11793
4 11796 11798 11799 11797
4 11800 11802 11803 11801
4 11804 11806 11807 11805
4 11808 11810 11811 11809
4 11812 11814 11815 11813
4 11816 11818 11819 11817
4 11820 11822 11823 11821
4 11824 11826 11827 11825
4 11828 11830 11831 11829
4 11832 11834 11835 11833
4 11836 11838 11839 11837
4 11840 11842 11843 11841
4 11844 11846 11847 11845
4 11848 11850 11851 11849
4 11852 11854 11855 11853
4 11856 11858 11859 11857
4 11860 11862 11863 11861
4 11864 11866 11867 11865
4 11868 11870 11871 11869
4 11872 11874 11875 11873
4 11876 11878 11879 11877
4 11880 11882 11883 11881
4 11884 11886 11887 11885
4 11888 11890 11891 11889
4 11892 11894 11895 11893
4 11896 11898 11899 11897
4 11900 11902 11903 11901
4 11904 11906 11907 11905
4 11908 11910 11911 11909
4 11912 11914 11915 11913
4 11916 11918 11919 11917
4 11920 11922 11923 11921
4 11924 11926 11927 11925
4 11928 11930 11931 11929
4 11932 11934 11935 11933
4 11936 11938 11939 11937
4 11940 11942 11943 11941
4 11944 11946 11947 11945
4 11948 11950 11951 11949
4 11952 11954 11955 11953
4 11956 11958 11959 11957
4 11960 11962 11963 11961
4 11964 11966 11967 11965
4 11968 11970 11971 11969
4 11972 11974 11975 11973
4 11976 11978 11979 11977
4 11980 11982 11983 11981
4 11984 11986 11987 11985
4 11988 11990 11991 11989
4 11992 11994 11995 11993
4 11996 11998 11999 11997
4 12000 12002 12003 12001
4 12004 12006 12007 12005
4 12008 12010 12011 12009
4 12012 12014 12015 12013
4 12016 12018 12019 12017
4 12020 12022 12023 12021
4 12024 12026 12027 12025
4 12028 12030 12031 12029
4 12032 12034 12035 12033
4 12036 12038 12039 12037
4 12040 12042 12043 12041
4 12044 12046 12047 12045
4 12048 12050 12051 12049
4 12052 12054 12055 12053
4 12056 12058 12059 12057
4 12060 12062 12063 12061
4 12064 12066 12067 12065
4 12068 12070 12071 12069
4 12072 12074 12075 12073
4 12076 12078 12079 12077
4 12080 12082 12083 12081
4 12084 12086 12087 12085
4 12088 12090 12091 12089
4 12092 12094 12095 12093
4 12096 12098 12099 12097
4 12100 12102 12103 12101
4 12104 12106 12107 12105
4 12108 12110 12111 12109
4 12112 12114 12115 12113
4 12116 12118 12119 12117
4 12120 12122 12123 12121
4 12124 12126 12127 12125
4 12128 12130 12131 12129
4 12132 12134 12135 12133
4 12136 12138 12139 12137
4 12140 12142 12143 12141
4 12144 12146 12147 12145
4 12148 12150 12151 12149
4 12152 12154 12155 12153
4 12156 12158 12159 12157
4 12160 12162 12163 12161
4 12164 12166 12167 12165
4 12168 12170 12171 12169
4 12172 12174 12175 12173
4 12176 12178 12179 12177
4 12180 12182 12183 12181
4 12184 12186 12187 12185
4 12188 12190 12191 12189
4 12192 12194 12195 12193
4 12196 12198 12199 12197
4 12200 12202 12203 12201
4 12204 12206 12207 12205
4 12208 12210 12211 12209
4 12212 12214 12215 12213
4 12216 12218 12219 12217
4 12220 12222 12223 12221
4 12224 12226 12227 12225
4 12228 12230 12231 12229
4 12232 12234 12235 12233
4 12236 12238 12239 12237
4 12240 12242 12243 12241
4 12244 12246 12247 12245
4 12248 12250 12251 12249
4 12252 12254 12255 12253
4 12256 12258 12259 12257
4 12260 12262 12263 12261
4 12264 12266 12267 12265
4 12268 12270 12271 12269
4 12272 12274 12275 12273
4 12276 12278 12279 12277
4 12280 12282 12283 12281
4 12284 12286 12287 12285
4 12288 12290 12291 12289
4 12292 12294 12295 12293
4 12296 12298 12299 12297
4 12300 12302 12303 12301
4 12304 12306 12307 12305
4 12308 12310 12311 12309
4 12312 12314 12315 12313
4 12316 12318 12319 12317
4 12320 12322 12323 12321
4 12324 12326 12327 12325
4 12328 12330 12331 12329
4 12332 12334 12335 12333
4 12336 12338 12339 12337
4 12340 12342 12343 12341
4 12344 12346 12347 12345
4 12348 12350 12351 12349
4 12352 12354 12355 12353
4 12356 12358 12359 12357
4 12360 12362 12363 12361
4 12364 12366 12367 12365
4 12368 12370 12371 12369
4 12372 12374 12375 12373
4 12376 12378 12379 12377
4 12380 12382 12383 12381
4 12384 12386 12387 12385
4 12388 12390 12391 12389
4 12392 12394 12395 12393
4 12396 12398 12399 12397
4 12400 12402 12403 12401
4 12404 12406 12407 12405
4 12408 12410 12411 12409
4 12412 12414 12415 12413
4 12416 12418 12419 12417
4 12420 12422 12423 12421
4 12424 12426 12427 12425
4 12428 12430 12431 12429
4 12432 12434 12435 12433
4 12436 12438 12439 12437
4 12440 12442 12443 12441
4 12444 12446 12447 12445
4 12448 12450 12451 12449
4 12452 12454 12455 12453
4 12456 12458 12459 12457
4 12460 12462 12463 12461
4 12464 12466 12467 12465
4 12468 12470 12471 12469
4 12472 12474 12475 12473
4 12476 12478 12479 12477
4 12480 12482 12483 12481
4 12484 12486 12487 12485
4 12488 12490 12491 12489
4 12492 12494 12495 12493
4 12496 12498 12499 12497
4 12500 12502 12503 12501
4 12504 12506 12507 12505
4 12508 12510 12511 12509
4 12512 12514 12515 12513
4 12516 12518 12519 12517
4 12520 12522 12523 12521
4 12524 12526 12527 12525
4 12528 12530 12531 12529
4 12532 12534 12535 12533
4 12536 12538 12539 12537
4 12540 12542 12543 12541
4 12544 12546 12547 12545
4 12548 12550 12551 12549
4 12552 12554 12555 12553
4 12556 12558 12559 12557
4 12560 12562 12563 12561
4 12564 12566 12567 12565
4 12568 12570 12571 12569
4 12572 12574 12575 12573
4 12576 12578 12579 12577
4 12580 12582 12583 12581
4 12584 12586 12587 12585
4 12588 12590 12591 12589
4 12592 12594 12595 12593
4 12596 12598 12599 12597
4 12600 12602 12603 12601
4 12604 12606 12607 12605
4 12608 12610 12611 12609
4 12612 12614 12615 12613
4 12616 12618 12619 12617
4 12620 12622 12623 12621
4 12624 12626 12627 12625
4 12628 12630 12631 12629
4 12632 12634 12635 12633
4 12636 12638 12639 12637
4 12640 12642 12643 12641
4 12644 12646 12647 12645
4 12648 12650 12651 12649
4 12652 12654 12655 12653
4 12656 12658 12659 12657
4 12660 12662 12663 12661
4 12664 12666 12667 12665
4 12668 12670 12671 12669
4 12672 12674 12675 12673
4 12676 12678 12679 12677
4 12680 12682 12683 12681
4 12684 12686 12687 12685
4 12688 12690 12691 12689
4 12692 12694 12695 12693
4 12696 12698 12699 12697
4 12700 12702 12703 12701
4 12704 12706 12707 12705
4 12708 12710 12711 12709
4 12712 12714 12715 12713
4 12716 12718 12719 12717
4 12720 12722 12723 12721
4 12724 12726 12727 12725
4 12728 12730 12731 12729
4 12732 12734 12735 12733
4 12736 12738 12739 12737
4 12740 12742 12743 12741
4 12744 12746 12747 12745
4 12748 12750 12751 12749
4 12752 12754 12755 12753
4 12756 12758 12759 12757
4 12760 12762 12763 12761
4 12764 12766 12767 12765
4 12768 12770 12771 12769
4 12772 12774 12775 12773
4 12776 12778 12779 12777
4 12780 12782 12783 12781
4 12784 12786 12787 12785
4 12788 12790 12791 12789
4 12792 12794 12795 12793
4 12796 12798 12799 12797
4 12800 12802 12803 12801
4 12804 12806 12807 12805
4 12808 12810 12811 12809
4 12812 12814 12815 12813
4 12816 12818 12819 12817
4 12820 12822 12823 12821
4 12824 12826 12827 12825
4 12828 12830 12831 12829
4 12832 12834 12835 12833
4 12836 12838 12839 12837
4 12840 12842 12843 12841
4 12844 12846 12847 12845
4 12848 12850 12851 12849
4 12852 12854 12855 12853
4 12856 12858 12859 12857
4 12860 12862 12863 12861
4 12864 12866 12867 12865
4 12868 12870 12871 12869
4 12872 12874 12875 12873
4 12876 12878 12879 12877
4 12880 12882 12883 12881
4 12884 12886 12887 12885
4 12888 12890 12891 12889
4 12892 12894 12895 12893
4 12896 12898 12899 12897
4 12900 12902 12903 12901
4 12904 12906 12907 12905
4 12908 12910 12911 12909
4 12912 12914 12915 12913
4 12916 12918 12919 12917
4 12920 12922 12923 12921
4 12924 12926 12927 12925
4 12928 12930 12931 12929
4 12932 12934 12935 12933
4 12936 12938 12939 12937
4 12940 12942 12943 12941
4 12944 12946 12947 12945
4 12948 12950 12951 12949
4 12952 12954 12955 12953
4 12956 12958 12959 12957
4 12960 12962 12963 12961
4 12964 12966 12967 12965
4 12968 12970 12971 12969
4 12972 12974 12975 12973
4 12976 12978 12979 12977
4 12980 12982 12983 12981
4 12984 12986 12987 12985
4 12988 12990 12991 12989
4 12992 12994 12995 12993
4 12996 12998 12999 12997
4 13000 13002 13003 13001
4 13004 13006 13007 13005
4 13008 13010 13011 13009
4 13012 13014 13015 13013
4 13016 13018 13019 13017
4 13020 13022 13023 13021
4 13024 13026 13027 13025
4 13028 13030 13031 13029
4 13032 13034 13035 13033
4 13036 13038 13039 13037
4 13040 13042 13043 13041
4 13044 13046 13047 13045
4 13048 13050 13051 13049
4 13052 13054 13055 13053
4 13056 13058 13059 13057
4 13060 13062 13063 13061
4 13064 13066 13067 13065
4 13068 13070 13071 13069
4 13072 13074 13075 13073
4 13076 13078 13079 13077
4 13080 13082 13083 13081
4 13084 13086 13087 13085
4 13088 13090 13091 13089
4 13092 13094 13095 13093
4 13096 13098 13099 13097
4 13100 13102 13103 13101
4 13104 13106 13107 13105
4 13108 13110 13111 13109
4 13112 13114 13115 13113
4 13116 13118 13119 13117
4 13120 13122 13123 13121
4 13124 13126 13127 13125
4 13128 13130 13131 13129
4 13132 13134 13135 13133
4 13136 13138 13139 13137
4 13140 13142 13143 13141
4 13144 13146 13147 13145
4 13148 13150 13151 13149
4 13152 13154 13155 13153
4 13156 13158 13159 13157
4 13160 13162 13163 13161
4 13164 13166 13167 13165
4 13168 13170 13171 13169
4 13172 13174 13175 13173
4 13176 13178 13179 13177
4 13180 13182 13183 13181
4 13184 13186 13187 13185
4 13188 13190 13191 13189
4 13192 13194 13195 13193
4 13196 13198 13199 13197
4 13200 13202 13203 13201
4 13204 13206 13207 13205
4 13208 13210 13211 13209
4 13212 13214 13215 13213
4 13216 13218 13219 13217
4 13220 13222 13223 13221
4 13224 13226 13227 13225
4 13228 13230 13231 13229
4 13232 13234 13235 13233
4 13236 13238 13239 13237
4 13240 13242 13243 13241
4 13244 13246 13247 13245
4 13248 13250 13251 13249
4 13252 13254 13255 13253
4 13256 13258 13259 13257
4 13260 13262 13263 13261
4 13264 13266 13267 13265
4 13268 13270 13271 13269
4 13272 13274 13275 13273
4 13276 13278 13279 13277
4 13280 13282 13283 13281
4 13284 13286 13287 13285
4 13288 13290 13291 13289
4 13292 13294 13295 13293
4 13296 13298 13299 13297
4 13300 13302 13303 13301
4 13304 13306 13307 13305
4 13308 13310 13311 13309
4 13312 13314 13315 13313
4 13316 13318 13319 13317
4 13320 13322 13323 13321
4 13324 13326 13327 13325
4 13328 13330 13331 13329
4 13332 13334 13335 13333
4 13336 13338 13339 13337
4 13340 13342 13343 13341
4 13344 13346 13347 13345
4 13348 13350 13351 13349
4 13352 13354 13355 13353
4 13356 13358 13359 13357
4 13360 13362 13363 13361
4 13364 13366 13367 13365
4 13368 13370 13371 13369
4 13372 13374 13375 13373
4 13376 13378 13379 13377
4 13380 13382 13383 13381
4 13384 13386 13387 13385
4 13388 13390 13391 13389
4 13392 13394 13395 13393
4 13396 13398 13399 13397
4 13400 13402 13403 13401
4 13404 13406 13407 13405
4 13408 13410 13411 13409
4 13412 13414 13415 13413
4 13416 13418 13419 13417
4 13420 13422 13423 13421
4 13424 13426 13427 13425
4 13428 13430 13431 13429
4 13432 13434 13435 13433
4 13436 13438 13439 13437
4 13440 13442 13443 13441
4 13444 13446 13447 13445
4 13448 13450 13451 13449
4 13452 13454 13455 13453
4 13456 13458 13459 13457
4 13460 13462 13463 13461
4 13464 13466 13467 13465
4 13468 13470 13471 13469
4 13472 13474 13475 13473
4 13476 13478 13479 13477
4 13480 13482 13483 13481
4 13484 13486 13487 13485
4 13488 13490 13491 13489
4 13492 13494 13495 13493
4 13496 13498 13499 13497
4 13500 13502 13503 13501
4 13504 13506 13507 13505
4 13508 13510 13511 13509
4 13512 13514 13515 13513
4 13516 13518 13519 13517
4 13520 13522 13523 13521
4 13524 13526 13527 13525
4 13528 13530 13531 13529
4 13532 13534 13535 13533
4 13536 13538 13539 13537
4 13540 13542 13543 13541
4 13544 13546 13547 13545
4 13548 13550 13551 13549
4 13552 13554 13555 13553
4 13556 13558 13559 13557
4 13560 13562 13563 13561
4 13564 13566 13567 13565
4 13568 13570 13571 13569
4 13572 13574 13575 13573
4 13576 13578 13579 13577
4 13580 13582 13583 13581
4 13584 13586 13587 13585
4 13588 13590 13591 13589
4 13592 13594 13595 13593
4 13596 13598 13599 13597
4 13600 13602 13603 13601
4 13604 13606 13607 13605
4 13608 13610 13611 13609
4 13612 13614 13615 13613
4 13616 13618 13619 13617
4 13620 13622 13623 13621
4 13624 13626 13627 13625
4 13628 13630 13631 13629
4 13632 13634 13635 13633
4 13636 13638 13639 13637
4 13640 13642 13643 13641
4 13644 13646 13647 13645
4 13648 13650 13651 13649
4 13652 13654 13655 13653
4 13656 13658 13659 13657
4 13660 13662 13663 13661
4 13664 13666 13667 13665
4 13668 13670 13671 13669
4 13672 13674 13675 13673
4 13676 13678 13679 13677
4 13680 13682 13683 13681
4 13684 13686 13687 13685
4 13688 13690 13691 13689
4 13692 13694 13695 13693
4 13696 13698 13699 13697
4 13700 13702 13703 13701
4 13704 13706 13707 13705
4 13708 13710 13711 13709
4 13712 13714 13715 13713
4 13716 13718 13719 13717
4 13720 13722 13723 13721
4 13724 13726 13727 13725
4 13728 13730 13731 13729
4 13732 13734 13735 13733
4 13736 13738 13739 13737
4 13740 13742 13743 13741
4 13744 13746 13747 13745
4 13748 13750 13751 13749
4 13752 13754 13755 13753
4 13756 13758 13759 13757
4 13760 13762 13763 13761
4 13764 13766 13767 13765
4 13768 13770 13771 13769
4 13772 13774 13775 13773
4 13776 13778 13779 13777
4 13780 13782 13783 13781
4 13784 13786 13787 13785
4 13788 13790 13791 13789
4 13792 13794 13795 13793
4 13796 13798 13799 13797
4 13800 13802 13803 13801
4 13804 13806 13807 13805
4 13808 13810 13811 13809
4 13812 13814 13815 13813
4 13816 13818 13819 13817
4 13820 13822 13823 13821
4 13824 13826 13827 13825
4 13828 13830 13831 13829
4 13832 13834 13835 13833
4 13836 13838 13839 13837
4 13840 13842 13843 13841
4 13844 13846 13847 13845
4 13848 13850 13851 13849
4 13852 13854 13855 13853
4 13856 13858 13859 13857
4 13860 13862 13863 13861
4 13864 13866 13867 13865
4 13868 13870 13871 13869
4 13872 13874 13875 13873
4 13876 13878 13879 13877
4 13880 13882 13883 13881
4 13884 13886 13887 13885
4 13888 13890 13891 13889
4 13892 13894 13895 13893
4 13896 13898 13899 13897
4 13900 13902 13903 13901
4 13904 13906 13907 13905
4 13908 13910 13911 13909
4 13912 13914 13915 13913
4 13916 13918 13919 13917
4 13920 13922 13923 13921
4 13924 13926 13927 13925
4 13928 13930 13931 13929
4 13932 13934 13935 13933
4 13936 13938 13939 13937
4 13940 13942 13943 13941
4 13944 13946 13947 13945
4 13948 13950 13951 13949
4 13952 13954 13955 13953
4 13956 13958 13959 13957
4 13960 13962 13963 13961
4 13964 13966 13967 13965
4 13968 13970 13971 13969
4 13972 13974 13975 13973
4 13976 13978 13979 13977
4 13980 13982 13983 13981
4 13984 13986 13987 13985
4 13988 13990 13991 13989
4 13992 13994 13995 13993
4 13996 13998 13999 13997
4 14000 14002 14003 14001
4 14004 14006 14007 14005
4 14008 14010 14011 14009
4 14012 14014 14015 14013
4 14016 14018 14019 14017
4 14020 14022 14023 14021
4 14024 14026 14027 14025
4 14028 14030 14031 14029
4 14032 14034 14035 14033
4 14036 14038 14039 14037
4 14040 14042 14043 14041
4 14044 14046 14047 14045
4 14048 14050 14051 14049
4 14052 14054 14055 14053
4 14056 14058 14059 14057
4 14060 14062 14063 14061
4 14064 14066 14067 14065
4 14068 14070 14071 14069
4 14072 14074 14075 14073
4 14076 14078 14079 14077
4 14080 14082 14083 14081
4 14084 14086 14087 14085
4 14088 14090 14091 14089
4 14092 14094 14095 14093
4 14096 14098 14099 14097
4 14100 14102 14103 14101
4 14104 14106 14107 14105
4 14108 14110 14111 14109
4 14112 14114 14115 14113
4 14116 14118 14119 14117
4 14120 14122 14123 14121
4 14124 14126 14127 14125
4 14128 14130 14131 14129
4 14132 14134 14135 14133
4 14136 14138 14139 14137
4 14140 14142 14143 14141
4 14144 14146 14147 14145
4 14148 14150 14151 14149
4 14152 14154 14155 14153
4 14156 14158 14159 14157
4 14160 14162 14163 14161
4 14164 14166 14167 14165
4 14168 14170 14171 14169
4 14172 14174 14175 14173
4 14176 14178 14179 14177
4 14180 14182 14183 14181
4 14184 14186 14187 14185
4 14188 14190 14191 14189
4 14192 14194 14195 14193
4 14196 14198 14199 14197
4 14200 14202 14203 14201
4 14204 14206 14207 14205
4 14208 14210 14211 14209
4 14212 14214 14215 14213
4 14216 14218 14219 14217
4 14220 14222 14223 14221
4 14224 14226 14227 14225
4 14228 14230 14231 14229
4 14232 14234 14235 14233
4 14236 14238 14239 14237
4 14240 14242 14243 14241
4 14244 14246 14247 14245
4 14248 14250 14251 14249
4 14252 14254 14255 14253
4 14256 14258 14259 14257
4 14260 14262 14263 14261
4 14264 14266 14267 14265
4 14268 14270 14271 14269
4 14272 14274 14275 14273
4 14276 14278 14279 14277
4 14280 14282 14283 14281
4 14284 14286 14287 14285
4 14288 14290 14291 14289
4 14292 14294 14295 14293
4 14296 14298 14299 14297
4 14300 14302 14303 14301
4 14304 14306 14307 14305
4 14308 14310 14311 14309
4 14312 14314 14315 14313
4 14316 14318 14319 14317
4 14320 14322 14323 14321
4 14324 14326 14327 14325
4 14328 14330 14331 14329
4 14332 14334 14335 14333
4 14336 14338 14339 14337
4 14340 14342 14343 14341
4 14344 14346 14347 14345
4 14348 14350 14351 14349
4 14352 14354 14355 14353
4 14356 14358 14359 14357
4 14360 14362 14363 14361
4 14364 14366 14367 14365
4 14368 14370 14371 14369
4 14372 14374 14375 14373
4 14376 14378 14379 14377
4 14380 14382 14383 14381
4 14384 14386 14387 14385
4 14388 14390 14391 14389
4 14392 14394 14395 14393
4 14396 14398 14399 14397
4 14400 14402 14403 14401
4 14404 14406 14407 14405
4 14408 14410 14411 14409
4 14412 14414 14415 14413
4 14416 14418 14419 14417
4 14420 14422 14423 14421
4 14424 14426 14427 14425
4 14428 14430 14431 14429
4 14432 14434 14435 14433
4 14436 14438 14439 14437
4 14440 14442 14443 14441
4 14444 14446 14447 14445
4 14448 14450 14451 14449
4 14452 14454 14455 14453
4 14456 14458 14459 14457
4 14460 14462 14463 14461
4 14464 14466 14467 14465
4 14468 14470 14471 14469
4 14472 14474 14475 14473
4 14476 14478 14479 14477
4 14480 14482 14483 14481
4 14484 14486 14487 14485
4 14488 14490 14491 14489
4 14492 14494 14495 14493
4 14496 14498 14499 14497
4 14500 14502 14503 14501
4 14504 14506 14507 14505
4 14508 14510 14511 14509
4 14512 14514 14515 14513
4 14516 14518 14519 14517
4 14520 14522 14523 14521
4 14524 14526 14527 14525
4 14528 14530 14531 14529
4 14532 14534 14535 14533
4 14536 14538 14539 14537
4 14540 14542 14543 14541
4 14544 14546 14547 14545
4 14548 14550 14551 14549
4 14552 14554 14555 14553
4 14556 14558 14559 14557
4 14560 14562 14563 14561
4 14564 14566 14567 14565
4 14568 14570 14571 14569
4 14572 14574 14575 14573
4 14576 14578 14579 14577
4 14580 14582 14583 14581
4 14584 14586 14587 14585
4 14588 14590 14591 14589
4 14592 14594 14595 14593
4 14596 14598 14599 14597
4 14600 14602 14603 14601
4 14604 14606 14607 14605
4 14608 14610 14611 14609
4 14612 14614 14615 14613
4 14616 14618 14619 14617
4 14620 14622 14623 14621
4 14624 14626 14627 14625
4 14628 14630 14631 14629
4 14632 14634 14635 14633
4 14636 14638 14639 14637
4 14640 14642 14643 14641
4 14644 14646 14647 14645
4 14648 14650 14651 14649
4 14652 14654 14655 14653
4 14656 14658 14659 14657
4 14660 14662 14663 14661
4 14664 14666 14667 14665
4 14668 14670 14671 14669
4 14672 14674 14675 14673
4 14676 14678 14679 14677
4 14680 14682 14683 14681
4 14684 14686 14687 14685
4 14688 14690 14691 14689
4 14692 14694 14695 14693
4 14696 14698 14699 14697
4 14700 14702 14703 14701
4 14704 14706 14707 14705
4 14708 14710 14711 14709
4 14712 14714 14715 14713
4 14716 14718 14719 14717
4 14720 14722 14723 14721
4 14724 14726 14727 14725
4 14728 14730 14731 14729
4 14732 14734 14735 14733
4 14736 14738 14739 14737
4 14740 14742 14743 14741
4 14744 14746 14747 14745
4 14748 14750 14751 14749
4 14752 14754 14755 14753
4 14756 14758 14759 14757
4 14760 14762 14763 14761
4 14764 14766 14767 14765
4 14768 14770 14771 14769
4 14772 14774 14775 14773
4 14776 14778 14779 14777
4 14780 14782 14783 14781
4 14784 14786 14787 14785
4 14788 14790 14791 14789
4 14792 14794 14795 14793
4 14796 14798 14799 14797
4 14800 14802 14803 14801
4 14804 14806 14807 14805
4 14808 14810 14811 14809
4 14812 14814 14815 14813
4 14816 14818 14819 14817
4 14820 14822 14823 14821
4 14824 14826 14827 14825
4 14828 14830 14831 14829
4 14832 14834 14835 14833
4 14836 14838 14839 14837
4 14840 14842 14843 14841
4 14844 14846 14847 14845
4 14848 14850 14851 14849
4 14852 14854 14855 14853
4 14856 14858 14859 14857
4 14860 14862 14863 14861
4 14864 14866 14867 14865
4 14868 14870 14871 14869
4 14872 14874 14875 14873
4 14876 14878 14879 14877
4 14880 14882 14883 14881
4 14884 14886 14887 14885
4 14888 14890 14891 14889
4 14892 14894 14895 14893
4 14896 14898 14899 14897
4 14900 14902 14903 14901
4 14904 14906 14907 14905
4 14908 14910 14911 14909
4 14912 14914 14915 14913
4 14916 14918 14919 14917
4 14920 14922 14923 14921
4 14924 14926 14927 14925
4 14928 14930 14931 14929
4 14932 14934 14935 14933
4 14936 14938 14939 14937
4 14940 14942 14943 14941
4 14944 14946 14947 14945
4 14948 14950 14951 14949
4 14952 14954 14955 14953
4 14956 14958 14959 14957
4 14960 14962 14963 14961
4 14964 14966 14967 14965
4 14968 14970 14971 14969
4 14972 14974 14975 14973
4 14976 14978 14979 14977
4 14980 14982 14983 14981
4 14984 14986 14987 14985
4 14988 14990 14991 14989
4 14992 14994 14995 14993
4 14996 14998 14999 14997
4 15000 15002 15003 15001
4 15004 15006 15007 15005
4 15008 15010 15011 15009
4 15012 15014 15015 15013
4 15016 15018 15019 15017
4 15020 15022 15023 15021
4 15024 15026 15027 15025
4 15028 15030 15031 15029
4 15032 15034 15035 15033
4 15036 15038 15039 15037
4 15040 15042 15043 15041
4 15044 15046 15047 15045
4 15048 15050 15051 15049
4 15052 15054 15055 15053
4 15056 15058 15059 15057
4 15060 15062 15063 15061
4 15064 15066 15067 15065
4 15068 15070 15071 15069
4 15072 15074 15075 15073
4 15076 15078 15079 15077
4 15080 15082 15083 15081
4 15084 15086 15087 15085
4 15088 15090 15091 15089
4 15092 15094 15095 15093
4 15096 15098 15099 15097
4 15100 15102 15103 15101
4 15104 15106 15107 15105
4 15108 15110 15111 15109
4 15112 15114 15115 15113
4 15116 15118 15119 15117
4 15120 15122 15123 15121
4 15124 15126 15127 15125
4 15128 15130 15131 15129
4 15132 15134 15135 15133
4 15136 15138 15139 15137
4 15140 15142 15143 15141
4 15144 15146 15147 15145
4 15148 15150 15151 15149
4 15152 15154 15155 15153
4 15156 15158 15159 15157
4 15160 15162 15163 15161
4 15164 15166 15167 15165
4 15168 15170 15171 15169
4 15172 15174 15175 15173
4 15176 15178 15179 15177
4 15180 15182 15183 15181
4 15184 15186 15187 15185
4 15188 15190 15191 15189
4 15192 15194 15195 15193
4 15196 15198 15199 15197
4 15200 15202 15203 15201
4 15204 15206 15207 15205
4 15208 15210 15211 15209
4 15212 15214 15215 15213
4 15216 15218 15219 15217
4 15220 15222 15223 15221
4 15224 15226 15227 15225
4 15228 15230 15231 15229
4 15232 15234 15235 15233
4 15236 15238 15239 15237
4 15240 15242 15243 15241
4 15244 15246 15247 15245
4 15248 15250 15251 15249
4 15252 15254 15255 15253
4 15256 15258 15259 15257
4 15260 15262 15263 15261
4 15264 15266 15267 15265
4 15268 15270 15271 15269
4 15272 15274 15275 15273
4 15276 15278 15279 15277
4 15280 15282 15283 15281
4 15284 15286 15287 15285
4 15288 15290 15291 15289
4 15292 15294 15295 15293
4 15296 15298 15299 15297
4 15300 15302 15303 15301
4 15304 15306 15307 15305
4 15308 15310 15311 15309
4 15312 15314 15315 15313
4 15316 15318 15319 15317
4 15320 15322 15323 15321
4 15324 15326 15327 15325
4 15328 15330 15331 15329
4 15332 15334 15335 15333
4 15336 15338 15339 15337
4 15340 15342 15343 15341
4 15344 15346 15347 15345
4 15348 15350 15351 15349
4 15352 15354 15355 15353
4 15356 15358 15359 15357
4 15360 15362 15363 15361
4 15364 15366 15367 15365
4 15368 15370 15371 15369
4 15372 15374 15375 15373

CELL_TYPES 3844
9
9
9
9
9
9
9
9
9
9
9
9
9
9
9
9
9
9
9
9
9
9
9
9
9
9
9
9
9
9
9
9
9
9
9
9
9
9
9
9
9
9
9
9
9
9
9
9
9
9
9
9
9
9
9
9
9
9
9
9
9
9
9
9
9
9
9
9
9
9
9
9
9
9
9
9
9
9
9
9
9
9
9
9
9
9
9
9
9
9
9
9
9
9
9
9
9
9
9
9
9
9
9
9
9
9
9
9
9
9
9
9
9
9
9
9
9
9
9
9
9
9
9
9
9
9
9
9
9
9
9
9
9
9
9
9
9
9
9
9
9
9
9
9
9
9
9
9
9
9
9
9
9
9
9
9
9
9
9
9
9
9
9
9
9
9
9
9
9
9
9
9
9
9
9
9
9
9
9
9
9
9
9
9
9
9
9
9
9
9
9
9
9
9
9
9
9
9
9
9
9
9
9
9
9
9
9
9
9
9
9
9
9
9
9
9
9
9
9
9
9
9
9
9
9
9
9
9
9
9
9
9
9
9
9
9
9
9
9
9
9
9
9
9
9
9
9
9
9
9
9
9
9
9
9
9
9
9
9
9
9
9
9
9
9
9
9
9
9
9
9
9
9
9
9
9
9
9
9
9
9
9
9
9
9
9
9
9
9
9
9
9
9
9
9
9
9
9
9
9
9
9
9
9
9
9
9
9
9
9
9
9
9
9
9
9
9
9
9
9
9
9
9
9
9
9
9
9
9
9
9
9
9
9
9
9
9
9
9
9
9
9
9
9
9
9
9
9
9
9
9
9
9
9
9
9
9
9
9
9
9
9
9
9
9
9
9
9
9
9
9
9
9
9
9
9
9
9
9
9
9
9
9
9
9
9
9
9
9
9
9
9
9
9
9
9
9
9
9
9
9
9
9
9
9
9
9
9
9
9
9
9
9
9
9
9
9
9
9
9
9
9
9
9
9
9
9
9
9
9
9
9
9
9
9
9
9
9
9
9
9
9
9
9
9
9
9
9
9
9
9
9
9
9
9
9
9
9
9
9
9
9
9
9
9
9
9
9
9
9
9
9
9
9
9
9
9
9
9
9
9
9
9
9
9
9
9
9
9
9
9
9
9
9
9
9
9
9
9
9
9
9
9
9
9
9
9
9
9
9
9
9
9
9
9
9
9
9
9
9
9
9
9
9
9
9
9
9
9
9
9
9
9
9
9
9
9
9
9
9
9
9
9
9
9
9
9
9
9
9
9
9
9
9
9
9
9
9
9
9
9
9
9
9
9
9
9
9
9
9
9
9
9
9
9
9
9
9
9
9
9
9
9
9
9
9
9
9
9
9
9
9
9
9
9
9
9
9
9
9
9
9
9
9
9
9
9
9
9
9
9
9
9
9
9
9
9
9
9
9
9
9
9
9
9
9
9
9
9
9
9
9
9
9
9
9
9
9
9
9
9
9
9
9
9
9
9
9
9
9
9
9
9
9
9
9
9
9
9
9
9
9
9
9
9
9
9
9
9
9
9
9
9
9
9
9
9
9
9
9
9
9
9
9
9
9
9
9
9
9
9
9
9
9
9
9
9
9
9
9
9
9
9
9
9
9
9
9
9
9
9
9
9
9
9
9
9
9
9
9
9
9
9
9
9
9
9
9
9
9
9
9
9
9
9
9
9
9
9
9
9
9
9
9
9
9
9
9
9
9
9
9
9
9
9
9
9
9
9
9
9
9
9
9
9
9
9
9
9
9
9
9
9
9
9
9
9
9
9
9
9
9
9
9
9
9
9
9
9
9
9
9
9
9
9
9
9
9
9
9
9
9
9
9
9
9
9
9
9
9
9
9
9
9
9
9
9
9
9
9
9
9
9
9
9
9
9
9
9
9
9
9
9
9
9
9
9
9
9
9
9
9
9
9
9
9
9
9
9
9
9
9
9
9
9
9
9
9
9
9
9
9
9
9
9
9
9
9
9
9
9
9
9
9
9
9
9
9
9
9
9
9
9
9
9
9
9
9
9
9
9
9
9
9
9
9
9
9
9
9
9
9
9
9
9
9
9
9
9
9
9
9
9
9
9
9
9
9
9
9
9
9
9
9
9
9
9
9
9
9
9
9
9
9
9
9
9
9
9
9
9
9
9
9
9
9
9
9
9
9
9
9
9
9
9
9
9
9
9
9
9
9
9
9
9
9
9
9
9
9
9
9
9
9
9
9
9
9
9
9
9
9
9
9
9
9
9
9
9
9
9
9
9
9
9
9
9
9
9
9
9
9
9
9
9
9
9
9
9
9
9
9
9
9
9
9
9
9
9
9
9
9
9
9
9
9
9
9
9
9
9
9
9
9
9
9
9
9
9
9
9
9
9
9
9
9
9
9
9
9
9
9
9
9
9
9
9
9
9
9
9
9
9
9
9
9
9
9
9
9
9
9
9
9
9
9
9
9
9
9
9
9
9
9
9
9
9
9
9
9
9
9
9
9
9
9
9
9
9
9
9
9
9
9
9
9
9
9
9
9
9
9
9
9
9
9
9
9
9
9
9
9
9
9
9
9
9
9
9
9
9
9
9
9
9
9
9
9
9
9
9
9
9
9
9
9
9
9
9
9
9
9
9
9
9
9
9
9
9
9
9
9
9
9
9
9
9
9
9
9
9
9
9
9
9
9
9
9
9
9
9
9
9
9
9
9
9
9
9
9
9
9
9
9
9
9
9
9
9
9
9
9
9
9
9
9
9
9
9
9
9
9
9
9
9
9
9
9
9
9
9
9
9
9
9
9
9
9
9
9
9
9
9
9
9
9
9
9
9
9
9
9
9
9
9
9
9
9
9
9
9
9
9
9
9
9
9
9
9
9
9
9
9
9
9
9
9
9
9
9
9
9
9
9
9
9
9
9
9
9
9
9
9
9
9
9
9
9
9
9
9
9
9
9
9
9
9
9
9
9
9
9
9
9
9
9
9
9
9
9
9
9
9
9
9
9
9
9
9
9
9
9
9
9
9
9
9
9
9
9
9
9
9
9
9
9
9
9
9
9
9
9
9
9
9
9
9
9
9
9
9
9
9
9
9
9
9
9
9
9
9
9
9
9
9
9
9
9
9
9
9
9
9
9
9
9
9
9
9
9
9
9
9
9
9
9
9
9
9
9
9
9
9
9
9
9
9
9
9
9
9
9
9
9
9
9
9
9
9
9
9
9
9
9
9
9
9
9
9
9
9
9
9
9
9
9
9
9
9
9
9
9
9
9
9
9
9
9
9
9
9
9
9
9
9
9
9
9
9
9
9
9
9
9
9
9
9
9
9
9
9
9
9
9
9
9
9
9
9
9
9
9
9
9
9
9
9
9
9
9
9
9
9
9
9
9
9
9
9
9
9
9
9
9
9
9
9
9
9
9
9
9
9
9
9
9
9
9
9
9
9
9
9
9
9
9
9
9
9
9
9
9
9
9
9
9
9
9
9
9
9
9
9
9
9
9
9
9
9
9
9
9
9
9
9
9
9
9
9
9
9
9
9
9
9
9
9
9
9
9
9
9
9
9
9
9
9
9
9
9
9
9
9
9
9
9
9
9
9
9
9
9
9
9
9
9
9
9
9
9
9
9
9
9
9
9
9
9
9
9
9
9
9
9
9
9
9
9
9
9
9
9
9
9
9
9
9
9
9
9
9
9
9
9
9
9
9
9
9
9
9
9
9
9
9
9
9
9
9
9
9
9
9
9
9
9
9
9
9
9
9
9
9
9
9
9
9
9
9
9
9
9
9
9
9
9
9
9
9
9
9
9
9
9
9
9
9
9
9
9
9
9
9
9
9
9
9
9
9
9
9
9
9
9
9
9
9
9
9
9
9
9
9
9
9
9
9
9
9
9
9
9
9
9
9
9
9
9
9
9
9
9
9
9
9
9
9
9
9
9
9
9
9
9
9
9
9
9
9
9
9
9
9
9
9
9
9
9
9
9
9
9
9
9
9
9
9
9
9
9
9
9
9
9
9
9
9
9
9
9
9
9
9
9
9
9
9
9
9
9
9
9
9
9
9
9
9
9
9
9
9
9
9
9
9
9
9
9
9
9
9
9
9
9
9
9
9
9
9
9
9
9
9
9
9
9
9
9
9
9
9
9
9
9
9
9
9
9
9
9
9
9
9
9
9
9
9
9
9
9
9
9
9
9
9
9
9
9
9
9
9
9
9
9
9
9
9
9
9
9
9
9
9
9
9
9
9
9
9
9
9
9
9
9
9
9
9
9
9
9
9
9
9
9
9
9
9
9
9
9
9
9
9
9
9
9
9
9
9
9
9
9
9
9
9
9
9
9
9
9
9
9
9
9
9
9
9
9
9
9
9
9
9
9
9
9
9
9
9
9
9
9
9
9
9
9
9
9
9
9
9
9
9
9
9
9
9
9
9
9
9
9
9
9
9
9
9
9
9
9
9
9
9
9
9
9
9
9
9
9
9
9
9
9
9
9
9
9
9
9
9
9
9
9
9
9
9
9
9
9
9
9
9
9
9
9
9
9
9
9
9
9
9
9
9
9
9
9
9
9
9
9
9
9
9
9
9
9
9
9
9
9
9
9
9
9
9
9
9
9
9
9
9
9
9
9
9
9
9
9
9
9
9
9
9
9
9
9
9
9
9
9
9
9
9
9
9
9
9
9
9
9
9
9
9
9
9
9
9
9
9
9
9
9
9
9
9
9
9
9
9
9
9
9
9
9
9
9
9
9
9
9
9
9
9
9
9
9
9
9
9
9
9
9
9
9
9
9
9
9
9
9
9
9
9
9
9
9
9
9
9
9
9
9
9
9
9
9
9
9
9
9
9
9
9
9
9
9
9
9
9
9
9
9
9
9
9
9
9
9
9
9
9
9
9
9
9
9
9
9
9
9
9
9
9
9
9
9
9
9
9
9
9
9
9
9
9
9
9
9
9
9
9
9
9
9
9
9
9
9
9
9
9
9
9
9
9
9
9
9
9
9
9
9
9
9
9
9
9
9
9
9
9
9
9
9
9
9
9
9
9
9
9
9
9
9
9
9
9
9
9
9
9
9
9
9
9
9
9
9
9
9
9
9
9
9
9
9
9
9
9
9
9
9
9
9
9
9
9
9
9
9
9
9
9
9
9
9
9
9
9
9
9
9
9
9
9
9
9
9
9
9
9
9
9
9
9
9
9
9
9
9
9
9
9
9
9
9
9
9
9
9
9
9
9
9
9
9
9
9
9
9
9
9
9
9
9
9
9
9
9
9
9
9
9
9
9
9
9
9
9
9
9
9
9
9
9
9
9
9
9
9
9
9
9
9
9
9
9
9
9
9
9
9
9
9
9
9
9
9
9
9
9
9
9
9
9
9
9
9
9
9
9
9
9
9
9
9
9
9
9
9
9
9
9
9
9
9
9
9
9
9
9
9
9
9
9
9
9
9
9
9
9
9
9
9
9
9
9
9
9
9
9
9
9
9
9
9
9
9
9
9
9
9
9
9
9
9
9
9
9
9
9
9
9
9
9
9
9
9
9
9
9
9
9
9
9
9
9
9
9
9
9
9
9
9
9
9
9
9
9
9
9
9
9
9
9
9
9
9
9
9
9
9
9
9
9
9
9
9
9
9
9
9
9
9
9
9
9
9
9
9
9
9
9
9
9
9
9
9
9
9
9
9
9
9
9
9
9
9
9
9
9
9
9
9
9
9
9
9
9
9
9
9
9
9
9
9
9
9
9
9
9
9
9
9
9
9
9
9
9
9
9
9
9
9
9
9
9
9
9
9
9
9
9
9
9
9
9
9
9
9
9
9
9
9
9
9
9
9
9
9
9
9
9
9
9
9
9
9
9
9
9
9
9
9
9
9
9
9
9
9
9
9
9
9
9
9
9
9
9
9
9
9
9
9
9
9
9
9
9
9
9
9
9
9
9
9
9
9
9
9
9
9
9
9
9
9
9
9
9
9
9
9
9
9
9
9
9
9
9
9
9
9
9
9
9
9
9
9
9
9
9
9
9
9
9
9
9
9
9
9
9
9
9
9
9
9
9
9
9
9
9
9
9
9
9
9
9
9
9
9
9
9
9
9
9
9
9
9
9
9
9
9
9
9
9
9
9
9
9
9
9
9
9
9
9
9
9
9
9
9
9
9
9
9
9
9
9
9
9
9
9
9
9
9
9
9
9
9
9
9
9
9
9
9
9
9
9
9
9
9
9
9
9
9
9
9
9
9
9
9
9
9
9
9
9
9
9
9
9
9
9
9
9
9
9
9
9
9
9
9
9
9
9
9
9
9
9
9
9
9
9
9
9
9
9
9
9
9
9
9
9
9
9
9
9
9
9
9
9
9
9
9
9
9
9
9
9
9
9
9
9
9
9
9
9
9
9
9
9
9
9
9
9
9
9
9
9
9
9
9
9
9
9
9
9
9
9
9
9
9
9
9
9
9
9
9
9
9
9
9
9
9
9
9
9
9
9
9
9
9
9
9
9
9
9
9
9
9
9
9
9
9
9
9
9
9
9
9
9
9
9
9
9
9
9
9
9
9
9
9
9
9
9
9
9
9
9
9
9
9
9
9
9
9
9
9
9
9
9
9
9
9
9
9
9
9
9
9
9
9
9
9
9
9
9
9
9
9
9
9
9
9
9
9
9
9
9
9
9
9
9
9
9
9
9
9
9
9
9
9
9
9
9
9
9
9
9
9
9
9
9
9
9
9
9
9
9
9
9
9
9
9
9
9
9
9
9
9
9
9
9
9
9
9
9
9
9
9
9
9
9
9
9
9
9
9
9
9
9
9
9
9
9
9
9
9
9
9
9
9
9
9
9
9
9
9
9
9
9
9
9
9
9
9
9
9
9
9
9
9
9
9
9
9
9
9
9
9
9
9
9
9
9
9
9
9
9
9
9
9
9
9
9
9
9
9
9
9
9
9
9
9
9
9
9
9
9
9
9
9
9
9
9
9
9
9
9
9
9
9
9
9
9
9
9
9
9
9
9
9
9
9
9
9
9
9
9
9
9
9
9
9
9
9
9
9
9
9
9
9
9
9
9
9
9
9
9
9
9
9
9
9
9
9
9
9
9
9
9
9
9
9
9
9
9
9
9
9
9
9
9
9
9
9
9
9
9
9
9
9
9
9
9
9
9
9
9
9
9
9
9
9
9
9
9
9
9
9
9
9
9
9
9
9
9
9
9
9
9
9
9
9
9
9
9
9
9
9
9
9
9
9
9
9
9
9
9
9
9
9
9
9
9
9
9
9
9
9
9
9
9
9
9
9
9
9
9
9
9
9
9
9
9
9
9
9
9
9
9
9
9
9
9
9
9
9
9
9
9
9
9
9
9
9
9
9
9
9
9
9
9
9
9
9
9
9
9
9
9
9
9
9
9
9
9
9
9
9
9
9
9
9
9
9
9
9
9
9
9
9
9
9
9
9
9
9
9
9
9
9
9
9
9
9
9
9
9
9
9
9
9
9
9
9
9
9
9
9
9
9
9
9
9
9
9
9
9
9
9
9
9
9
9
9
9
9
9
9
9
9
9
9
9
9
9
9
9
9
9
9
9
9
9
9
9
9
9
9
9
9
9
9
9
9
9
9
9
9
9
9
9
9
9
9
9
9
9
9
9
9
9
9
9
9
9
9
9
9
9
9
9
9
9
9
9
9
9
9
9
9
9
9
9
9
9
9
9
9
9
9
9
9
9
9
9
9
9
9
9
9
9
9
9
9
9
9
9
9
9
9
9
9
9
9
9
9
9
9
9
9
9
9
9
9
9
9
9
9
9
9
9
9
9
9
9
9
9
9
9
9
9
9
9
9
9
9
9
9
9
9
9
9
9
9
9
9
9
9
9
9
9
9
9
9
9
9
9
9
9
9
9
9
9
9
9
9
9
9
9
9
9
9
9
9
9
9
9
9
9
9
9
9
9
9
9
9
9
9
9
9
9
9
9
9
9
9
9
9
9
9
9
9
9
9
9
9
9
9
9
9
9
9
9
9
9
9
9
9
9
9
9
9
9
9
9
9
9
9
9
9
9
9
9
9
9
9
9
9
9
9
9
9
9
9
9
9
9
9
9
9
9
9
9
9
9
9
9
9
9
9
9
9
9
9
9
9
9
9
9
9
9
9
9
9
9
9
9
9
9
9
9
9
9
9
9
9
9
9
9
9
9
9
9
9
9
9
9
9
9
9
9
9
9
9
9
9
9
9
9
9
9
9
9
9
9
9
9
9
9
9
9
9
9
9
9
9
9
9
9
9
9
9
9
9
9
9
9
9
9
9
9
9
9
9
9
9
9
9
9
9
9
9
9
9
9
9
9
9
9
9
9
9
9
9
9
9
9
9
9
9
9
9
9
9
9
9
9
9
9
9
9
9
9
9
9
9
9
9
9
9
9
9
9
9
9
9
9
9
9
9
9
9
9
9
9
9
9
9
9
9
9
9
9
9
9
9
9
9
9
9
9
9
9
9
9
9
9
9
9
9
9
9
9
9
9
9
9
9
9
9
9
9
9
9
9
9
9
9
9
9
9
9
9
9
9
9
9
9
9
9
9
9
9
9
9
9
9
9
9
9
9
9
9
9
9
9
9
9
9
9
9
9
9
9
9
9
9
9
9
9
9
9
9
9
9
9
9
9
9
9
9
9
9
9
9
9
9
9
9
9
9
9
9
9
9
9
9
9
9
9
9
9

POINT_DATA 15376
SCALARS FailureType float
LOOKUP_TABLE default
0 
0 
0 
0 
0 
0 
0 
0 
0 
0 
0 
0 
0 
0 
0 
0 
0 
0 
0 
0 
0 
0 
0 
0 
0 
0 
0 
0 
0 
0 
0 
0 
0 
0 
0 
0 
0 
0 
0 
0 
0 
0 
0 
0 
0 
0 
0 
0 
0 
0 
0 
0 
0 
0 
0 
0 
0 
0 
0 
0 
0 
0 
0 
0 
0 
0 
0 
0 
0 
0 
0 
0 
0 
0 
0 
0 
0 
0 
0 
0 
0 
0 
0 
0 
0 
0 
0 
0 
0 
0 
0 
0 
0 
0 
0 
0 
0 
0 
0 
0 
0 
0 
0 
0 
0 
0 
0 
0 
0 
0 
0 
0 
0 
0 
0 
0 
0 
0 
0 
0 
0 
0 
0 
0 
0 
0 
0 
0 
0 
0 
0 
0 
0 
0 
0 
0 
0 
0 
0 
0 
0 
0 
0 
0 
0 
0 
0 
0 
0 
0 
0 
0 
0 
0 
0 
0 
0 
0 
0 
0 
0 
0 
0 
0 
0 
0 
0 
0 
0 
0 
0 
0 
0 
0 
0 
0 
0 
0 
0 
0 
0 
0 
0 
0 
0 
0 
0 
0 
0 
0 
0 
0 
0 
0 
0 
0 
0 
0 
0 
0 
0 
0 
0 
0 
0 
0 
0 
0 
0 
0 
0 
0 
0 
0 
0 
0 
0 
0 
0 
0 
0 
0 
0 
0 
0 
0 
0 
0 
0 
0 
0 
0 
0 
0 
0 
0 
0 
0 
0 
0 
0 
0 
0 
0 
0 
0 
0 
0 
0 
0 
0 
0 
0 
0 
0 
0 
0 
0 
0 
0 
0 
0 
0 
0 
0 
0 
0 
0 
0 
0 
0 
0 
0 
0 
0 
0 
0 
0 
0 
0 
0 
0 
0 
0 
0 
0 
0 
0 
0 
0 
0 
0 
0 
0 
0 
0 
0 
0 
0 
0 
0 
0 
0 
0 
0 
0 
0 
0 
0 
0 
0 
0 
0 
0 
0 
0 
0 
0 
0 
0 
0 
0 
0 
0 
0 
0 
0 
0 
0 
0 
0 
0 
0 
0 
0 
0 
0 
0 
0 
0 
0 
0 
0 
0 
0 
0 
0 
0 
0 
0 
0 
0 
0 
0 
0 
0 
0 
0 
0 
0 
0 
0 
0 
0 
0 
0 
0 
0 
0 
0 
0 
0 
0 
0 
0 
0 
0 
0 
0 
0 
0 
0 
0 
0 
0 
0 
0 
0 
0 
0 
0 
0 
0 
0 
0 
0 
0 
0 
0 
0 
0 
0 
0 
0 
0 
0 
0 
0 
0 
0 
0 
0 
0 
0 
0 
0 
0 
0 
0 
0 
0 
0 
0 
0 
0 
0 
0 
0 
0 
0 
0 
0 
0 
0 
0 
0 
0 
0 
0 
0 
0 
0 
0 
0 
0 
0 
0 
0 
0 
0 
0 
0 
0 
0 
0 
0 
0 
0 
0 
0 
0 
0 
0 
0 
0 
0 
0 
0 
0 
0 
0 
0 
0 
0 
0 
0 
0 
0 
0 
0 
0 
0 
0 
0 
0 
0 
0 
0 
0 
0 
0 
0 
0 
0 
0 
0 
0 
0 
0 
0 
0 
0 
0 
0 
0 
0 
0 
0 
0 
0 
0 
0 
0 
0 
0 
0 
0 
0 
0 
0 
0 
0 
0 
0 
0 
0 
0 
0 
0 
0 
0 
0 
0 
0 
0 
0 
0 
0 
0 
0 
0 
0 
0 
0 
0 
0 
0 
0 
0 
0 
0 
0 
0 
0 
0 
0 
0 
0 
0 
0 
0 
0 
0 
0 
0 
0 
0 
0 
0 
0 
0 
0 
0 
0 
0 
0 
0 
0 
0 
0 
0 
0 
0 
0 
0 
0 
0 
0 
0 
0 
0 
0 
0 
0 
0 
0 
0 
0 
0 
0 
0 
0 
0 
0 
0 
0 
0 
0 
0 
0 
0 
0 
0 
0 
0 
0 
0 
0 
0 
0 
0 
0 
0 
0 
0 
0 
0 
0 
0 
0 
0 
0 
0 
0 
0 
0 
0 
0 
0 
0 
0 
0 
0 
0 
0 
0 
0 
0 
0 
0 
0 
0 
0 
0 
0 
0 
0 
0 
0 
0 
0 
0 
0 
0 
0 
0 
0 
0 
0 
0 
0 
0 
0 
0 
0 
0 
0 
0 
0 
0 
0 
0 
0 
0 
0 
0 
0 
0 
0 
0 
0 
0 
0 
0 
0 
0 
0 
0 
0 
0 
0 
0 
0 
0 
0 
0 
0 
0 
0 
0 
0 
0 
0 
0 
0 
0 
0 
0 
0 
0 
0 
0 
0 
0 
0 
0 
0 
0 
0 
0 
0 
0 
0 
0 
0 
0 
0 
0 
0 
0 
0 
0 
0 
0 
0 
0 
0 
0 
0 
0 
0 
0 
0 
0 
0 
0 
0 
0 
0 
0 
0 
0 
0 
0 
0 
0 
0 
0 
0 
0 
0 
0 
0 
0 
0 
0 
0 
0 
0 
0 
0 
0 
0 
0 
0 
0 
0 
0 
0 
0 
0 
0 
0 
0 
0 
0 
0 
0 
0 
0 
0 
0 
0 
0 
0 
0 
0 
0 
0 
0 
0 
0 
0 
0 
0 
0 
0 
0 
0 
0 
0 
0 
0 
0 
0 
0 
0 
0 
0 
0 
0 
0 
0 
0 
0 
0 
0 
0 
0 
0 
0 
0 
0 
0 
0 
0 
0 
0 
0 
0 
0 
0 
0 
0 
0 
0 
0 
0 
0 
0 
0 
0 
0 
0 
0 
0 
0 
0 
0 
0 
0 
0 
0 
0 
0 
0 
0 
0 
0 
0 
0 
0 
0 
0 
0 
0 
0 
0 
0 
0 
0 
0 
0 
0 
0 
0 
0 
0 
0 
0 
0 
0 
0 
0 
0 
0 
0 
0 
0 
0 
0 
0 
0 
0 
0 
0 
0 
0 
0 
0 
0 
0 
0 
0 
0 
0 
0 
0 
0 
0 
0 
0 
0 
0 
0 
0 
0 
0 
0 
0 
0 
0 
0 
0 
0 
0 
0 
0 
0 
0 
0 
0 
0 
0 
0 
0 
0 
0 
0 
0 
0 
0 
0 
0 
0 
0 
0 
0 
0 
0 
0 
0 
0 
0 
0 
0 
0 
0 
0 
0 
0 
0 
0 
0 
0 
0 
0 
0 
0 
0 
0 
0 
0 
0 
0 
0 
0 
0 
0 
0 
0 
0 
0 
0 
0 
0 
0 
0 
0 
0 
0 
0 
0 
0 
0 
0 
0 
0 
0 
0 
0 
0 
0 
0 
0 
0 
0 
0 
0 
0 
0 
0 
0 
0 
0 
0 
0 
0 
0 
0 
0 
0 
0 
0 
0 
0 
0 
0 
0 
0 
0 
0 
0 
0 
0 
0 
0 
0 
0 
0 
0 
0 
0 
0 
0 
0 
0 
0 
0 
0 
0 
0 
0 
0 
0 
0 
0 
0 
0 
0 
0 
0 
0 
0 
0 
0 
0 
0 
0 
0 
0 
0 
0 
0 
0 
0 
0 
0 
0 
0 
0 
0 
0 
0 
0 
0 
0 
0 
0 
0 
0 
0 
0 
0 
0 
0 
0 
0 
0 
0 
0 
0 
0 
0 
0 
0 
0 
0 
0 
0 
0 
0 
0 
0 
0 
0 
0 
0 
0 
0 
0 
0 
0 
0 
0 
0 
0 
0 
0 
0 
0 
0 
0 
0 
0 
0 
0 
0 
0 
0 
0 
0 
0 
0 
0 
0 
0 
0 
0 
0 
0 
0 
0 
0 
0 
0 
0 
0 
0 
0 
0 
0 
0 
0 
0 
0 
0 
0 
0 
0 
0 
0 
0 
0 
0 
0 
0 
0 
0 
0 
0 
0 
0 
0 
0 
0 
0 
0 
0 
0 
0 
0 
0 
0 
0 
0 
0 
0 
0 
0 
0 
0 
0 
0 
0 
0 
0 
0 
0 
0 
0 
0 
0 
0 
0 
0 
0 
0 
0 
0 
0 
0 
0 
0 
0 
0 
0 
0 
0 
0 
0 
0 
0 
0 
0 
0 
0 
0 
0 
0 
0 
0 
0 
0 
0 
0 
0 
0 
0 
0 
0 
0 
0 
0 
0 
0 
0 
0 
0 
0 
0 
0 
0 
0 
0 
0 
0 
0 
0 
0 
0 
0 
0 
0 
0 
0 
0 
0 
0 
0 
0 
0 
0 
0 
0 
0 
0 
0 
0 
0 
0 
0 
0 
0 
0 
0 
0 
0 
0 
0 
0 
0 
0 
0 
0 
0 
0 
0 
0 
0 
0 
0 
0 
0 
0 
0 
0 
0 
0 
0 
0 
0 
0 
0 
0 
0 
0 
0 
0 
0 
0 
0 
0 
0 
0 
0 
0 
0 
0 
0 
0 
0 
0 
0 
0 
0 
0 
0 
0 
0 
0 
0 
0 
0 
0 
0 
0 
0 
0 
0 
0 
0 
0 
0 
0 
0 
0 
0 
0 
0 
0 
0 
0 
0 
0 
0 
0 
0 
0 
0 
0 
0 
0 
0 
0 
0 
0 
0 
0 
0 
0 
0 
0 
0 
0 
0 
0 
0 
0 
0 
0 
0 
0 
0 
0 
0 
0 
0 
0 
0 
0 
0 
0 
0 
0 
0 
0 
0 
0 
0 
0 
0 
0 
0 
0 
0 
0 
0 
0 
0 
0 
0 
0 
0 
0 
0 
0 
0 
0 
0 
0 
0 
0 
0 
0 
0 
0 
0 
0 
0 
0 
0 
0 
0 
0 
0 
0 
0 
0 
0 
0 
0 
0 
0 
0 
0 
0 
0 
0 
0 
0 
0 
0 
0 
0 
0 
0 
0 
0 
0 
0 
0 
0 
0 
0 
0 
0 
0 
0 
0 
0 
0 
0 
0 
0 
0 
0 
0 
0 
0 
0 
0 
0 
0 
0 
0 
0 
0 
0 
0 
0 
0 
0 
0 
0 
0 
0 
0 
0 
0 
0 
0 
0 
0 
0 
0 
0 
0 
0 
0 
0 
0 
0 
0 
0 
0 
0 
0 
0 
0 
0 
0 
0 
0 
0 
0 
0 
0 
0 
0 
0 
0 
0 
0 
0 
0 
0 
0 
0 
0 
0 
0 
0 
0 
0 
0 
0 
0 
0 
0 
0 
0 
0 
0 
0 
0 
0 
0 
0 
0 
0 
0 
0 
0 
0 
0 
0 
0 
0 
0 
0 
0 
0 
0 
0 
0 
0 
0 
0 
0 
0 
0 
0 
0 
0 
0 
0 
0 
0 
0 
0 
0 
0 
0 
0 
0 
0 
0 
0 
0 
0 
0 
0 
0 
0 
0 
0 
0 
0 
0 
0 
0 
0 
0 
0 
0 
0 
0 
0 
0 
0 
0 
0 
0 
0 
0 
0 
0 
0 
0 
0 
0 
0 
0 
0 
0 
0 
0 
0 
0 
0 
0 
0 
0 
0 
0 
0 
0 
0 
0 
0 
0 
0 
0 
0 
0 
0 
0 
0 
0 
0 
0 
0 
0 
0 
0 
0 
0 
0 
0 
0 
0 
0 
0 
0 
0 
0 
0 
0 
0 
0 
0 
0 
0 
0 
0 
0 
0 
0 
0 
0 
0 
0 
0 
0 
0 
0 
0 
0 
0 
0 
0 
0 
0 
0 
0 
0 
0 
0 
0 
0 
0 
0 
0 
0 
0 
0 
0 
0 
0 
0 
0 
0 
0 
0 
0 
0 
0 
0 
0 
0 
0 
0 
0 
0 
0 
0 
0 
0 
0 
0 
0 
0 
0 
0 
0 
0 
0 
0 
0 
0 
0 
0 
0 
0 
0 
0 
0 
0 
0 
0 
0 
0 
0 
0 
0 
0 
0 
0 
0 
0 
0 
0 
0 
0 
0 
0 
0 
0 
0 
0 
0 
0 
0 
0 
0 
0 
0 
0 
0 
0 
0 
0 
0 
0 
0 
0 
0 
0 
0 
0 
0 
0 
0 
0 
0 
0 
0 
0 
0 
0 
0 
0 
0 
0 
0 
0 
0 
0 
0 
0 
0 
0 
0 
0 
0 
0 
0 
0 
0 
0 
0 
0 
0 
0 
0 
0 
0 
0 
0 
0 
0 
0 
0 
0 
0 
0 
0 
0 
0 
0 
0 
0 
0 
0 
0 
0 
0 
0 
0 
0 
0 
0 
0 
0 
0 
0 
0 
0 
0 
0 
0 
0 
0 
0 
0 
0 
0 
0 
0 
0 
0 
0 
0 
0 
0 
0 
0 
0 
0 
0 
0 
0 
0 
0 
0 
0 
0 
0 
0 
0 
0 
0 
0 
0 
0 
0 
0 
0 
0 
0 
0 
0 
0 
0 
0 
0 
0 
0 
0 
0 
0 
0 
0 
0 
0 
0 
0 
0 
0 
0 
0 
0 
0 
0 
0 
0 
0 
0 
0 
0 
0 
0 
0 
0 
0 
0 
0 
0 
0 
0 
0 
0 
0 
0 
0 
0 
0 
0 
0 
0 
0 
0 
0 
0 
0 
0 
0 
0 
0 
0 
0 
0 
0 
0 
0 
0 
0 
0 
0 
0 
0 
0 
0 
0 
0 
0 
0 
0 
0 
0 
0 
0 
0 
0 
0 
0 
0 
0 
0 
0 
0 
0 
0 
0 
0 
0 
0 
0 
0 
0 
0 
0 
0 
0 
0 
0 
0 
0 
0 
0 
0 
0 
0 
0 
0 
0 
0 
0 
0 
0 
0 
0 
0 
0 
0 
0 
0 
0 
0 
0 
0 
0 
0 
0 
0 
0 
0 
0 
0 
0 
0 
0 
0 
0 
0 
0 
0 
0 
0 
0 
0 
0 
0 
0 
0 
0 
0 
0 
0 
0 
0 
0 
0 
0 
0 
0 
0 
0 
0 
0 
0 
0 
0 
0 
0 
0 
0 
0 
0 
0 
0 
0 
0 
0 
0 
0 
0 
0 
0 
0 
0 
0 
0 
0 
0 
0 
0 
0 
0 
0 
0 
0 
0 
0 
0 
0 
0 
0 
0 
0 
0 
0 
0 
0 
0 
0 
0 
0 
0 
0 
0 
0 
0 
0 
0 
0 
0 
0 
0 
0 
0 
0 
0 
0 
0 
0 
0 
0 
0 
0 
0 
0 
0 
0 
0 
0 
0 
0 
0 
0 
0 
0 
0 
0 
0 
0 
0 
0 
0 
0 
0 
0 
0 
0 
0 
0 
0 
0 
0 
0 
0 
0 
0 
0 
0 
0 
0 
0 
0 
0 
0 
0 
0 
0 
0 
0 
0 
0 
0 
0 
0 
0 
0 
0 
0 
0 
0 
0 
0 
0 
0 
0 
0 
0 
0 
0 
0 
0 
0 
0 
0 
0 
0 
0 
0 
0 
0 
0 
0 
0 
0 
0 
0 
0 
0 
0 
0 
0 
0 
0 
0 
0 
0 
0 
0 
0 
0 
0 
0 
0 
0 
0 
0 
0 
0 
0 
0 
0 
0 
0 
0 
0 
0 
0 
0 
0 
0 
0 
0 
0 
0 
0 
0 
0 
0 
0 
0 
0 
0 
0 
0 
0 
0 
0 
0 
0 
0 
0 
0 
0 
0 
0 
0 
0 
0 
0 
0 
0 
0 
0 
0 
0 
0 
0 
0 
0 
0 
0 
0 
0 
0 
0 
0 
0 
0 
0 
0 
0 
0 
0 
0 
0 
0 
0 
0 
0 
0 
0 
0 
0 
0 
0 
0 
0 
0 
0 
0 
0 
0 
0 
0 
0 
0 
0 
0 
0 
0 
0 
0 
0 
0 
0 
0 
0 
0 
0 
0 
0 
0 
0 
0 
0 
0 
0 
0 
0 
0 
0 
0 
0 
0 
0 
0 
0 
0 
0 
0 
0 
0 
0 
0 
0 
0 
0 
0 
0 
0 
0 
0 
0 
0 
0 
0 
0 
0 
0 
0 
0 
0 
0 
0 
0 
0 
0 
0 
0 
0 
0 
0 
0 
0 
0 
0 
0 
0 
0 
0 
0 
0 
0 
0 
0 
0 
0 
0 
0 
0 
0 
0 
0 
0 
0 
0 
0 
0 
0 
0 
0 
0 
0 
0 
0 
0 
0 
0 
0 
0 
0 
0 
0 
0 
0 
0 
0 
0 
0 
0 
0 
0 
0 
0 
0 
0 
0 
0 
0 
0 
0 
0 
0 
0 
0 
0 
0 
0 
0 
0 
0 
0 
0 
0 
0 
0 
0 
0 
0 
0 
0 
0 
0 
0 
0 
0 
0 
0 
0 
0 
0 
0 
0 
0 
0 
0 
0 
0 
0 
0 
0 
0 
0 
0 
0 
0 
0 
0 
0 
0 
0 
0 
0 
0 
0 
0 
0 
0 
0 
0 
0 
0 
0 
0 
0 
0 
0 
0 
0 
0 
0 
0 
0 
0 
0 
0 
0 
0 
0 
0 
0 
0 
0 
0 
0 
0 
0 
0 
0 
0 
0 
0 
0 
0 
0 
0 
0 
0 
0 
0 
0 
0 
0 
0 
0 
0 
0 
0 
0 
0 
0 
0 
0 
0 
0 
0 
0 
0 
0 
0 
0 
0 
0 
0 
0 
0 
0 
0 
0 
0 
0 
0 
0 
0 
0 
0 
0 
0 
0 
0 
0 
0 
0 
0 
0 
0 
0 
0 
0 
0 
0 
0 
0 
0 
0 
0 
0 
0 
0 
0 
0 
0 
0 
0 
0 
0 
0 
0 
0 
0 
0 
0 
0 
0 
0 
0 
0 
0 
0 
0 
0 
0 
0 
0 
0 
0 
0 
0 
0 
0 
0 
0 
0 
0 
0 
0 
0 
0 
0 
0 
0 
0 
0 
0 
0 
0 
0 
0 
0 
0 
0 
0 
0 
0 
0 
0 
0 
0 
0 
0 
0 
0 
0 
0 
0 
0 
0 
0 
0 
0 
0 
0 
0 
0 
0 
0 
0 
0 
0 
0 
0 
0 
0 
0 
0 
0 
0 
0 
0 
0 
0 
0 
0 
0 
0 
0 
0 
0 
0 
0 
0 
0 
0 
0 
0 
0 
0 
0 
0 
0 
0 
0 
0 
0 
0 
0 
0 
0 
0 
0 
0 
0 
0 
0 
0 
0 
0 
0 
0 
0 
0 
0 
0 
0 
0 
0 
0 
0 
0 
0 
0 
0 
0 
0 
0 
0 
0 
0 
0 
0 
0 
0 
0 
0 
0 
0 
0 
0 
0 
0 
0 
0 
0 
0 
0 
0 
0 
0 
0 
0 
0 
0 
0 
0 
0 
0 
0 
0 
0 
0 
0 
0 
0 
0 
0 
0 
0 
0 
0 
0 
0 
0 
0 
0 
0 
0 
0 
0 
0 
0 
0 
0 
0 
0 
0 
0 
0 
0 
0 
0 
0 
0 
0 
0 
0 
0 
0 
0 
0 
0 
0 
0 
0 
0 
0 
0 
0 
0 
0 
0 
0 
0 
0 
0 
0 
0 
0 
0 
0 
0 
0 
0 
0 
0 
0 
0 
0 
0 
0 
0 
0 
0 
0 
0 
0 
0 
0 
0 
0 
0 
0 
0 
0 
0 
0 
0 
0 
0 
0 
0 
0 
0 
0 
0 
0 
0 
0 
0 
0 
0 
0 
0 
0 
0 
0 
0 
0 
0 
0 
0 
0 
0 
0 
0 
0 
0 
0 
0 
0 
0 
0 
0 
0 
0 
0 
0 
0 
0 
0 
0 
0 
0 
0 
0 
0 
0 
0 
0 
0 
0 
0 
0 
0 
0 
0 
0 
0 
0 
0 
0 
0 
0 
0 
0 
0 
0 
0 
0 
0 
0 
0 
0 
0 
0 
0 
0 
0 
0 
0 
0 
0 
0 
0 
0 
0 
0 
0 
0 
0 
0 
0 
0 
0 
0 
0 
0 
0 
0 
0 
0 
0 
0 
0 
0 
0 
0 
0 
0 
0 
0 
0 
0 
0 
0 
0 
0 
0 
0 
0 
0 
0 
0 
0 
0 
0 
0 
0 
0 
0 
0 
0 
0 
0 
0 
0 
0 
0 
0 
0 
0 
0 
0 
0 
0 
0 
0 
0 
0 
0 
0 
0 
0 
0 
0 
0 
0 
0 
0 
0 
0 
0 
0 
0 
0 
0 
0 
0 
0 
0 
0 
0 
0 
0 
0 
0 
0 
0 
0 
0 
0 
0 
0 
0 
0 
0 
0 
0 
0 
0 
0 
0 
0 
0 
0 
0 
0 
0 
0 
0 
0 
0 
0 
0 
0 
0 
0 
0 
0 
0 
0 
0 
0 
0 
0 
0 
0 
0 
0 
0 
0 
0 
0 
0 
0 
0 
0 
0 
0 
0 
0 
0 
0 
0 
0 
0 
0 
0 
0 
0 
0 
0 
0 
0 
0 
0 
0 
0 
0 
0 
0 
0 
0 
0 
0 
0 
0 
0 
0 
0 
0 
0 
0 
0 
0 
0 
0 
0 
0 
0 
0 
0 
0 
0 
0 
0 
0 
0 
0 
0 
0 
0 
0 
0 
0 
0 
0 
0 
0 
0 
0 
0 
0 
0 
0 
0 
0 
0 
0 
0 
0 
0 
0 
0 
0 
0 
0 
0 
0 
0 
0 
0 
0 
0 
0 
0 
0 
0 
0 
0 
0 
0 
0 
0 
0 
0 
0 
0 
0 
0 
0 
0 
0 
0 
0 
0 
0 
0 
0 
0 
0 
0 
0 
0 
0 
0 
0 
0 
0 
0 
0 
0 
0 
0 
0 
0 
0 
0 
0 
0 
0 
0 
0 
0 
0 
0 
0 
0 
0 
0 
0 
0 
0 
0 
0 
0 
0 
0 
0 
0 
0 
0 
0 
0 
0 
0 
0 
0 
0 
0 
0 
0 
0 
0 
0 
0 
0 
0 
0 
0 
0 
0 
0 
0 
0 
0 
0 
0 
0 
0 
0 
0 
0 
0 
0 
0 
0 
0 
0 
0 
0 
0 
0 
0 
0 
0 
0 
0 
0 
0 
0 
0 
0 
0 
0 
0 
0 
0 
0 
0 
0 
0 
0 
0 
0 
0 
0 
0 
0 
0 
0 
0 
0 
0 
0 
0 
0 
0 
0 
0 
0 
0 
0 
0 
0 
0 
0 
0 
0 
0 
0 
0 
0 
0 
0 
0 
0 
0 
0 
0 
0 
0 
0 
0 
0 
0 
0 
0 
0 
0 
0 
0 
0 
0 
0 
0 
0 
0 
0 
0 
0 
0 
0 
0 
0 
0 
0 
0 
0 
0 
0 
0 
0 
0 
0 
0 
0 
0 
0 
0 
0 
0 
0 
0 
0 
0 
0 
0 
0 
0 
0 
0 
0 
0 
0 
0 
0 
0 
0 
0 
0 
0 
0 
0 
0 
0 
0 
0 
0 
0 
0 
0 
0 
0 
0 
0 
0 
0 
0 
0 
0 
0 
0 
0 
0 
0 
0 
0 
0 
0 
0 
0 
0 
0 
0 
0 
0 
0 
0 
0 
0 
0 
0 
0 
0 
0 
0 
0 
0 
0 
0 
0 
0 
0 
0 
0 
0 
0 
0 
0 
0 
0 
0 
0 
0 
0 
0 
0 
0 
0 
0 
0 
0 
0 
0 
0 
0 
0 
0 
0 
0 
0 
0 
0 
0 
0 
0 
0 
0 
0 
0 
0 
0 
0 
0 
0 
0 
0 
0 
0 
0 
0 
0 
0 
0 
0 
0 
0 
0 
0 
0 
0 
0 
0 
0 
0 
0 
0 
0 
0 
0 
0 
0 
0 
0 
0 
0 
0 
0 
0 
0 
0 
0 
0 
0 
0 
0 
0 
0 
0 
0 
0 
0 
0 
0 
0 
0 
0 
0 
0 
0 
0 
0 
0 
0 
0 
0 
0 
0 
0 
0 
0 
0 
0 
0 
0 
0 
0 
0 
0 
0 
0 
0 
0 
0 
0 
0 
0 
0 
0 
0 
0 
0 
0 
0 
0 
0 
0 
0 
0 
0 
0 
0 
0 
0 
0 
0 
0 
0 
0 
0 
0 
0 
0 
0 
0 
0 
0 
0 
0 
0 
0 
0 
0 
0 
0 
0 
0 
0 
0 
0 
0 
0 
0 
0 
0 
0 
0 
0 
0 
0 
0 
0 
0 
0 
0 
0 
0 
0 
0 
0 
0 
0 
0 
0 
0 
0 
0 
0 
0 
0 
0 
0 
0 
0 
0 
0 
0 
0 
0 
0 
0 
0 
0 
0 
0 
0 
0 
0 
0 
0 
0 
0 
0 
0 
0 
0 
0 
0 
0 
0 
0 
0 
0 
0 
0 
0 
0 
0 
0 
0 
0 
0 
0 
0 
0 
0 
0 
0 
0 
0 
0 
0 
0 
0 
0 
0 
0 
0 
0 
0 
0 
0 
0 
0 
0 
0 
0 
0 
0 
0 
0 
0 
0 
0 
0 
0 
0 
0 
0 
0 
0 
0 
0 
0 
0 
0 
0 
0 
0 
0 
0 
0 
0 
0 
0 
0 
0 
0 
0 
0 
0 
0 
0 
0 
0 
0 
0 
0 
0 
0 
0 
0 
0 
0 
0 
0 
0 
0 
0 
0 
0 
0 
0 
0 
0 
0 
0 
0 
0 
0 
0 
0 
0 
0 
0 
0 
0 
0 
0 
0 
0 
0 
0 
0 
0 
0 
0 
0 
0 
0 
0 
0 
0 
0 
0 
0 
0 
0 
0 
0 
0 
0 
0 
0 
0 
0 
0 
0 
0 
0 
0 
0 
0 
0 
0 
0 
0 
0 
0 
0 
0 
0 
0 
0 
0 
0 
0 
0 
0 
0 
0 
0 
0 
0 
0 
0 
0 
0 
0 
0 
0 
0 
0 
0 
0 
0 
0 
0 
0 
0 
0 
0 
0 
0 
0 
0 
0 
0 
0 
0 
0 
0 
0 
0 
0 
0 
0 
0 
0 
0 
0 
0 
0 
0 
0 
0 
0 
0 
0 
0 
0 
0 
0 
0 
0 
0 
0 
0 
0 
0 
0 
0 
0 
0 
0 
0 
0 
0 
0 
0 
0 
0 
0 
0 
0 
0 
0 
0 
0 
0 
0 
0 
0 
0 
0 
0 
0 
0 
0 
0 
0 
0 
0 
0 
0 
0 
0 
0 
0 
0 
0 
0 
0 
0 
0 
0 
0 
0 
0 
0 
0 
0 
0 
0 
0 
0 
0 
0 
0 
0 
0 
0 
0 
0 
0 
0 
0 
0 
0 
0 
0 
0 
0 
0 
0 
0 
0 
0 
0 
0 
0 
0 
0 
0 
0 
0 
0 
0 
0 
0 
0 
0 
0 
0 
0 
0 
0 
0 
0 
0 
0 
0 
0 
0 
0 
0 
0 
0 
0 
0 
0 
0 
0 
0 
0 
0 
0 
0 
0 
0 
0 
0 
0 
0 
0 
0 
0 
0 
0 
0 
0 
0 
0 
0 
0 
0 
0 
0 
0 
0 
0 
0 
0 
0 
0 
0 
0 
0 
0 
0 
0 
0 
0 
0 
0 
0 
0 
0 
0 
0 
0 
0 
0 
0 
0 
0 
0 
0 
0 
0 
0 
0 
0 
0 
0 
0 
0 
0 
0 
0 
0 
0 
0 
0 
0 
0 
0 
0 
0 
0 
0 
0 
0 
0 
0 
0 
0 
0 
0 
0 
0 
0 
0 
0 
0 
0 
0 
0 
0 
0 
0 
0 
0 
0 
0 
0 
0 
0 
0 
0 
0 
0 
0 
0 
0 
0 
0 
0 
0 
0 
0 
0 
0 
0 
0 
0 
0 
0 
0 
0 
0 
0 
0 
0 
0 
0 
0 
0 
0 
0 
0 
0 
0 
0 
0 
0 
0 
0 
0 
0 
0 
0 
0 
0 
0 
0 
0 
0 
0 
0 
0 
0 
0 
0 
0 
0 
0 
0 
0 
0 
0 
0 
0 
0 
0 
0 
0 
0 
0 
0 
0 
0 
0 
0 
0 
0 
0 
0 
0 
0 
0 
0 
0 
0 
0 
0 
0 
0 
0 
0 
0 
0 
0 
0 
0 
0 
0 
0 
0 
0 
0 
0 
0 
0 
0 
0 
0 
0 
0 
0 
0 
0 
0 
0 
0 
0 
0 
0 
0 
0 
0 
0 
0 
0 
0 
0 
0 
0 
0 
0 
0 
0 
0 
0 
0 
0 
0 
0 
0 
0 
0 
0 
0 
0 
0 
0 
0 
0 
0 
0 
0 
0 
0 
0 
0 
0 
0 
0 
0 
0 
0 
0 
0 
0 
0 
0 
0 
0 
0 
0 
0 
0 
0 
0 
0 
0 
0 
0 
0 
0 
0 
0 
0 
0 
0 
0 
0 
0 
0 
0 
0 
0 
0 
0 
0 
0 
0 
0 
0 
0 
0 
0 
0 
0 
0 
0 
0 
0 
0 
0 
0 
0 
0 
0 
0 
0 
0 
0 
0 
0 
0 
0 
0 
0 
0 
0 
0 
0 
0 
0 
0 
0 
0 
0 
0 
0 
0 
0 
0 
0 
0 
0 
0 
0 
0 
0 
0 
0 
0 
0 
0 
0 
0 
0 
0 
0 
0 
0 
0 
0 
0 
0 
0 
0 
0 
0 
0 
0 
0 
0 
0 
0 
0 
0 
0 
0 
0 
0 
0 
0 
0 
0 
0 
0 
0 
0 
0 
0 
0 
0 
0 
0 
0 
0 
0 
0 
0 
0 
0 
0 
0 
0 
0 
0 
0 
0 
0 
0 
0 
0 
0 
0 
0 
0 
0 
0 
0 
0 
0 
0 
0 
0 
0 
0 
0 
0 
0 
0 
0 
0 
0 
0 
0 
0 
0 
0 
0 
0 
0 
0 
0 
0 
0 
0 
0 
0 
0 
0 
0 
0 
0 
0 
0 
0 
0 
0 
0 
0 
0 
0 
0 
0 
0 
0 
0 
0 
0 
0 
0 
0 
0 
0 
0 
0 
0 
0 
0 
0 
0 
0 
0 
0 
0 
0 
0 
0 
0 
0 
0 
0 
0 
0 
0 
0 
0 
0 
0 
0 
0 
0 
0 
0 
0 
0 
0 
0 
0 
0 
0 
0 
0 
0 
0 
0 
0 
0 
0 
0 
0 
0 
0 
0 
0 
0 
0 
0 
0 
0 
0 
0 
0 
0 
0 
0 
0 
0 
0 
0 
0 
0 
0 
0 
0 
0 
0 
0 
0 
0 
0 
0 
0 
0 
0 
0 
0 
0 
0 
0 
0 
0 
0 
0 
0 
0 
0 
0 
0 
0 
0 
0 
0 
0 
0 
0 
0 
0 
0 
0 
0 
0 
0 
0 
0 
0 
0 
0 
0 
0 
0 
0 
0 
0 
0 
0 
0 
0 
0 
0 
0 
0 
0 
0 
0 
0 
0 
0 
0 
0 
0 
0 
0 
0 
0 
0 
0 
0 
0 
0 
0 
0 
0 
0 
0 
0 
0 
0 
0 
0 
0 
0 
0 
0 
0 
0 
0 
0 
0 
0 
0 
0 
0 
0 
0 
0 
0 
0 
0 
0 
0 
0 
0 
0 
0 
0 
0 
0 
0 
0 
0 
0 
0 
0 
0 
0 
0 
0 
0 
0 
0 
0 
0 
0 
0 
0 
0 
0 
0 
0 
0 
0 
0 
0 
0 
0 
0 
0 
0 
0 
0 
0 
0 
0 
0 
0 
0 
0 
0 
0 
0 
0 
0 
0 
0 
0 
0 
0 
0 
0 
0 
0 
0 
0 
0 
0 
0 
0 
0 
0 
0 
0 
0 
0 
0 
0 
0 
0 
0 
0 
0 
0 
0 
0 
0 
0 
0 
0 
0 
0 
0 
0 
0 
0 
0 
0 
0 
0 
0 
0 
0 
0 
0 
0 
0 
0 
0 
0 
0 
0 
0 
0 
0 
0 
0 
0 
0 
0 
0 
0 
0 
0 
0 
0 
0 
0 
0 
0 
0 
0 
0 
0 
0 
0 
0 
0 
0 
0 
0 
0 
0 
0 
0 
0 
0 
0 
0 
0 
0 
0 
0 
0 
0 
0 
0 
0 
0 
0 
0 
0 
0 
0 
0 
0 
0 
0 
0 
0 
0 
0 
0 
0 
0 
0 
0 
0 
0 
0 
0 
0 
0 
0 
0 
0 
0 
0 
0 
0 
0 
0 
0 
0 
0 
0 
0 
0 
0 
0 
0 
0 
0 
0 
0 
0 
0 
0 
0 
0 
0 
0 
0 
0 
0 
0 
0 
0 
0 
0 
0 
0 
0 
0 
0 
0 
0 
0 
0 
0 
0 
0 
0 
0 
0 
0 
0 
0 
0 
0 
0 
0 
0 
0 
0 
0 
0 
0 
0 
0 
0 
0 
0 
0 
0 
0 
0 
0 
0 
0 
0 
0 
0 
0 
0 
0 
0 
0 
0 
0 
0 
0 
0 
0 
0 
0 
0 
0 
0 
0 
0 
0 
0 
0 
0 
0 
0 
0 
0 
0 
0 
0 
0 
0 
0 
0 
0 
0 
0 
0 
0 
0 
0 
0 
0 
0 
0 
0 
0 
0 
0 
0 
0 
0 
0 
0 
0 
0 
0 
0 
0 
0 
0 
0 
0 
0 
0 
0 
0 
0 
0 
0 
0 
0 
0 
0 
0 
0 
0 
0 
0 
0 
0 
0 
0 
0 
0 
0 
0 
0 
0 
0 
0 
0 
0 
0 
0 
0 
0 
0 
0 
0 
0 
0 
0 
0 
0 
0 
0 
0 
0 
0 
0 
0 
0 
0 
0 
0 
0 
0 
0 
0 
0 
0 
0 
0 
0 
0 
0 
0 
0 
0 
0 
0 
0 
0 
0 
0 
0 
0 
0 
0 
0 
0 
0 
0 
0 
0 
0 
0 
0 
0 
0 
0 
0 
0 
0 
0 
0 
0 
0 
0 
0 
0 
0 
0 
0 
0 
0 
0 
0 
0 
0 
0 
0 
0 
0 
0 
0 
0 
0 
0 
0 
0 
0 
0 
0 
0 
0 
0 
0 
0 
0 
0 
0 
0 
0 
0 
0 
0 
0 
0 
0 
0 
0 
0 
0 
0 
0 
0 
0 
0 
0 
0 
0 
0 
0 
0 
0 
0 
0 
0 
0 
0 
0 
0 
0 
0 
0 
0 
0 
0 
0 
0 
0 
0 
0 
0 
0 
0 
0 
0 
0 
0 
0 
0 
0 
0 
0 
0 
0 
0 
0 
0 
0 
0 
0 
0 
0 
0 
0 
0 
0 
0 
0 
0 
0 
0 
0 
0 
0 
0 
0 
0 
0 
0 
0 
0 
0 
0 
0 
0 
0 
0 
0 
0 
0 
0 
0 
0 
0 
0 
0 
0 
0 
0 
0 
0 
0 
0 
0 
0 
0 
0 
0 
0 
0 
0 
0 
0 
0 
0 
0 
0 
0 
0 
0 
0 
0 
0 
0 
0 
0 
0 
0 
0 
0 
0 
0 
0 
0 
0 
0 
0 
0 
0 
0 
0 
0 
0 
0 
0 
0 
0 
0 
0 
0 
0 
0 
0 
0 
0 
0 
0 
0 
0 
0 
0 
0 
0 
0 
0 
0 
0 
0 
0 
0 
0 
0 
0 
0 
0 
0 
0 
0 
0 
0 
0 
0 
0 
0 
0 
0 
0 
0 
0 
0 
0 
0 
0 
0 
0 
0 
0 
0 
0 
0 
0 
0 
0 
0 
0 
0 
0 
0 
0 
0 
0 
0 
0 
0 
0 
0 
0 
0 
0 
0 
0 
0 
0 
0 
0 
0 
0 
0 
0 
0 
0 
0 
0 
0 
0 
0 
0 
0 
0 
0 
0 
0 
0 
0 
0 
0 
0 
0 
0 
0 
0 
0 
0 
0 
0 
0 
0 
0 
0 
0 
0 
0 
0 
0 
0 
0 
0 
0 
0 
0 
0 
0 
0 
0 
0 
0 
0 
0 
0 
0 
0 
0 
0 
0 
0 
0 
0 
0 
0 
0 
0 
0 
0 
0 
0 
0 
0 
0 
0 
0 
0 
0 
0 
0 
0 
0 
0 
0 
0 
0 
0 
0 
0 
0 
0 
0 
0 
0 
0 
0 
0 
0 
0 
0 
0 
0 
0 
0 
0 
0 
0 
0 
0 
0 
0 
0 
0 
0 
0 
0 
0 
0 
0 
0 
0 
0 
0 
0 
0 
0 
0 
0 
0 
0 
0 
0 
0 
0 
0 
0 
0 
0 
0 
0 
0 
0 
0 
0 
0 
0 
0 
0 
0 
0 
0 
0 
0 
0 
0 
0 
0 
0 
0 
0 
0 
0 
0 
0 
0 
0 
0 
0 
0 
0 
0 
0 
0 
0 
0 
0 
0 
0 
0 
0 
0 
0 
0 
0 
0 
0 
0 
0 
0 
0 
0 
0 
0 
0 
0 
0 
0 
0 
0 
0 
0 
0 
0 
0 
0 
0 
0 
0 
0 
0 
0 
0 
0 
0 
0 
0 
0 
0 
0 
0 
0 
0 
0 
0 
0 
0 
0 
0 
0 
0 
0 
0 
0 
0 
0 
0 
0 
0 
0 
0 
0 
0 
0 
0 
0 
0 
0 
0 
0 
0 
0 
0 
0 
0 
0 
0 
0 
0 
0 
0 
0 
0 
0 
0 
0 
0 
0 
0 
0 
0 
0 
0 
0 
0 
0 
0 
0 
0 
0 
0 
0 
0 
0 
0 
0 
0 
0 
0 
0 
0 
0 
0 
0 
0 
0 
0 
0 
0 
0 
0 
0 
0 
0 
0 
0 
0 
0 
0 
0 
0 
0 
0 
0 
0 
0 
0 
0 
0 
0 
0 
0 
0 
0 
0 
0 
0 
0 
0 
0 
0 
0 
0 
0 
0 
0 
0 
0 
0 
0 
0 
0 
0 
0 
0 
0 
0 
0 
0 
0 
0 
0 
0 
0 
0 
0 
0 
0 
0 
0 
0 
0 
0 
0 
0 
0 
0 
0 
0 
0 
0 
0 
0 
0 
0 
0 
0 
0 
0 
0 
0 
0 
0 
0 
0 
0 
0 
0 
0 
0 
0 
0 
0 
0 
0 
0 
0 
0 
0 
0 
0 
0 
0 
0 
0 
0 
0 
0 
0 
0 
0 
0 
0 
0 
0 
0 
0 
0 
0 
0 
0 
0 
0 
0 
0 
0 
0 
0 
0 
0 
0 
0 
0 
0 
0 
0 
0 
0 
0 
0 
0 
0 
0 
0 
0 
0 
0 
0 
0 
0 
0 
0 
0 
0 
0 
0 
0 
0 
0 
0 
0 
0 
0 
0 
0 
0 
0 
0 
0 
0 
0 
0 
0 
0 
0 
0 
0 
0 
0 
0 
0 
0 
0 
0 
0 
0 
0 
0 
0 
0 
0 
0 
0 
0 
0 
0 
0 
0 
0 
0 
0 
0 
0 
0 
0 
0 
0 
0 
0 
0 
0 
0 
0 
0 
0 
0 
0 
0 
0 
0 
0 
0 
0 
0 
0 
0 
0 
0 
0 
0 
0 
0 
0 
0 
0 
0 
0 
0 
0 
0 
0 
0 
0 
0 
0 
0 
0 
0 
0 
0 
0 
0 
0 
0 
0 
0 
0 
0 
0 
0 
0 
0 
0 
0 
0 
0 
0 
0 
0 
0 
0 
0 
0 
0 
0 
0 
0 
0 
0 
0 
0 
0 
0 
0 
0 
0 
0 
0 
0 
0 
0 
0 
0 
0 
0 
0 
0 
0 
0 
0 
0 
0 
0 
0 
0 
0 
0 
0 
0 
0 
0 
0 
0 
0 
0 
0 
0 
0 
0 
0 
0 
0 
0 
0 
0 
0 
0 
0 
0 
0 
0 
0 
0 
0 
0 
0 
0 
0 
0 
0 
0 
0 
0 
0 
0 
0 
0 
0 
0 
0 
0 
0 
0 
0 
0 
0 
0 
0 
0 
0 
0 
0 
0 
0 
0 
0 
0 
0 
0 
0 
0 
0 
0 
0 
0 
0 
0 
0 
0 
0 
0 
0 
0 
0 
0 
0 
0 
0 
0 
0 
0 
0 
0 
0 
0 
0 
0 
0 
0 
0 
0 
0 
0 
0 
0 
0 
0 
0 
0 
0 
0 
0 
0 
0 
0 
0 
0 
0 
0 
0 
0 
0 
0 
0 
0 
0 
0 
0 
0 
0 
0 
0 
0 
0 
0 
0 
0 
0 
0 
0 
0 
0 
0 
0 
0 
0 
0 
0 
0 
0 
0 
0 
0 
0 
0 
0 
0 
0 
0 
0 
0 
0 
0 
0 
0 
0 
0 
0 
0 
0 
0 
0 
0 
0 
0 
0 
0 
0 
0 
0 
0 
0 
0 
0 
0 
0 
0 
0 
0 
0 
0 
0 
0 
0 
0 
0 
0 
0 
0 
0 
0 
0 
0 
0 
0 
0 
0 
0 
0 
0 
0 
0 
0 
0 
0 
0 
0 
0 
0 
0 
0 
0 
0 
0 
0 
0 
0 
0 
0 
0 
0 
0 
0 
0 
0 
0 
0 
0 
0 
0 
0 
0 
0 
0 
0 
0 
0 
0 
0 
0 
0 
0 
0 
0 
0 
0 
0 
0 
0 
0 
0 
0 
0 
0 
0 
0 
0 
0 
0 
0 
0 
0 
0 
0 
0 
0 
0 
0 
0 
0 
0 
0 
0 
0 
0 
0 
0 
0 
0 
0 
0 
0 
0 
0 
0 
0 
0 
0 
0 
0 
0 
0 
0 
0 
0 
0 
0 
0 
0 
0 
0 
0 
0 
0 
0 
0 
0 
0 
0 
0 
0 
0 
0 
0 
0 
0 
0 
0 
0 
0 
0 
0 
0 
0 
0 
0 
0 
0 
0 
0 
0 
0 
0 
0 
0 
0 
0 
0 
0 
0 
0 
0 
0 
0 
0 
0 
0 
0 
0 
0 
0 
0 
0 
0 
0 
0 
0 
0 
0 
0 
0 
0 
0 
0 
0 
0 
0 
0 
0 
0 
0 
0 
0 
0 
0 
0 
0 
0 
0 
0 
0 
0 
0 
0 
0 
0 
0 
0 
0 
0 
0 
0 
0 
0 
0 
0 
0 
0 
0 
0 
0 
0 
0 
0 
0 
0 
0 
0 
0 
0 
0 
0 
0 
0 
0 
0 
0 
0 
0 
0 
0 
0 
0 
0 
0 
0 
0 
0 
0 
0 
0 
0 
0 
0 
0 
0 
0 
0 
0 
0 
0 
0 
0 
0 
0 
0 
0 
0 
0 
0 
0 
0 
0 
0 
0 
0 
0 
0 
0 
0 
0 
0 
0 
0 
0 
0 
0 
0 
0 
0 
0 
0 
0 
0 
0 
0 
0 
0 
0 
0 
0 
0 
0 
0 
0 
0 
0 
0 
0 
0 
0 
0 
0 
0 
0 
0 
0 
0 
0 
0 
0 
0 
0 
0 
0 
0 
0 
0 
0 
0 
0 
0 
0 
0 
0 
0 
0 
0 
0 
0 
0 
0 
0 
0 
0 
0 
0 
0 
0 
0 
0 
0 
0 
0 
0 
0 
0 
0 
0 
0 
0 
0 
0 
0 
0 
0 
0 
0 
0 
0 
0 
0 
0 
0 
0 
0 
0 
0 
0 
0 
0 
0 
0 
0 
0 
0 
0 
0 
0 
0 
0 
0 
0 
0 
0 
0 
0 
0 
0 
0 
0 
0 
0 
0 
0 
0 
0 
0 
0 
0 
0 
0 
0 
0 
0 
0 
0 
0 
0 
0 
0 
0 
0 
0 
0 
0 
0 
0 
0 
0 
0 
0 
0 
0 
0 
0 
0 
0 
0 
0 
0 
0 
0 
0 
0 
0 
0 
0 
0 
0 
0 
0 
0 
0 
0 
0 
0 
0 
0 
0 
0 
0 
0 
0 
0 
0 
0 
0 
0 
0 
0 
0 
0 
0 
0 
0 
0 
0 
0 
0 
0 
0 
0 
0 
0 
0 
0 
0 
0 
0 
0 
0 
0 
0 
0 
0 
0 
0 
0 
0 
0 
0 
0 
0 
0 
0 
0 
0 
0 
0 
0 
0 
0 
0 
0 
0 
0 
0 
0 
0 
0 
0 
0 
0 
0 
0 
0 
0 
0 
0 
0 
0 
0 
0 
0 
0 
0 
0 
0 
0 
0 
0 
0 
0 
0 
0 
0 
0 
0 
0 
0 
0 
0 
0 
0 
0 
0 
0 
0 
0 
0 
0 
0 
0 
0 
0 
0 
0 
0 
0 
0 
0 
0 
0 
0 
0 
0 
0 
0 
0 
0 
0 
0 
0 
0 
0 
0 
0 
0 
0 
0 
0 
0 
0 
0 
0 
0 
0 
0 
0 
0 
0 
0 
0 
0 
0 
0 
0 
0 
0 
0 
0 
0 
0 
0 
0 
0 
0 
0 
0 
0 
0 
0 
0 
0 
0 
0 
0 
0 
0 
0 
0 
0 
0 
0 
0 
0 
0 
0 
0 
0 
0 
0 
0 
0 
0 
0 
0 
0 
0 
0 
0 
0 
0 
0 
0 
0 
0 
0 
0 
0 
0 
0 
0 
0 
0 
0 
0 
0 
0 
0 
0 
0 
0 
0 
0 
0 
0 
0 
0 
0 
0 
0 
0 
0 
0 
0 
0 
0 
0 
0 
0 
0 
0 
0 
0 
0 
0 
0 
0 
0 
0 
0 
0 
0 
0 
0 
0 
0 
0 
0 
0 
0 
0 
0 
0 
0 
0 
0 
0 
0 
0 
0 
0 
0 
0 
0 
0 
0 
0 
0 
0 
0 
0 
0 
0 
0 
0 
0 
0 
0 
0 
0 
0 
0 
0 
0 
0 
0 
0 
0 
0 
0 
0 
0 
0 
0 
0 
0 
0 
0 
0 
0 
0 
0 
0 
0 
0 
0 
0 
0 
0 
0 
0 
0 
0 
0 
0 
0 
0 
0 
0 
0 
0 
0 
0 
0 
0 
0 
0 
0 
0 
0 
0 
0 
0 
0 
0 
0 
0 
0 
0 
0 
0 
0 
0 
0 
0 
0 
0 
0 
0 
0 
0 
0 
0 
0 
0 
0 
0 
0 
0 
0 
0 
0 
0 
0 
0 
0 
0 
0 
0 
0 
0 
0 
0 
0 
0 
0 
0 
0 
0 
0 
0 
0 
0 
0 
0 
0 
0 
0 
0 
0 
0 
0 
0 
0 
0 
0 
0 
0 
0 
0 
0 
0 
0 
0 
0 
0 
0 
0 
0 
0 
0 
0 
0 
0 
0 
0 
0 
0 
0 
0 
0 
0 
0 
0 
0 
0 
0 
0 
0 
0 
0 
0 
0 
0 
0 
0 
0 
0 
0 
0 
0 
0 
0 
0 
0 
0 
0 
0 
0 
0 
0 
0 
0 
0 
0 
0 
0 
0 
0 
0 
0 
0 
0 
0 
0 
0 
0 
0 
0 
0 
0 
0 
0 
0 
0 
0 
0 
0 
0 
0 
0 
0 
0 
0 
0 
0 
0 
0 
0 
0 
0 
0 
0 
0 
0 
0 
0 
0 
0 
0 
0 
0 
0 
0 
0 
0 
0 
0 
0 
0 
0 
0 
0 
0 
0 
0 
0 
0 
0 
0 
0 
0 
0 
0 
0 
0 
0 
0 
0 
0 
0 
0 
0 
0 
0 
0 
0 
0 
0 
0 
0 
0 
0 
0 
0 
0 
0 
0 
0 
0 
0 
0 
0 
0 
0 
0 
0 
0 
0 
0 
0 
0 
0 
0 
0 
0 
0 
0 
0 
0 
0 
0 
0 
0 
0 
0 
0 
0 
0 
0 
0 
0 
0 
0 
0 
0 
0 
0 
0 
0 
0 
0 
0 
0 
0 
0 
0 
0 
0 
0 
0 
0 
0 
0 
0 
0 
0 
0 
0 
0 
0 
0 
0 
0 
0 
0 
0 
0 
0 
0 
0 
0 
0 
0 
0 
0 
0 
0 
0 
0 
0 
0 
0 
0 
0 
0 
0 
0 
0 
0 
0 
0 
0 
0 
0 
0 
0 
0 
0 
0 
0 
0 
0 
0 
0 
0 
0 
0 
0 
0 
0 
0 
0 
0 
0 
0 
0 
0 
0 
0 
0 
0 
0 
0 
0 
0 
0 
0 
0 
0 
0 
0 
0 
0 
0 
0 
0 
0 
0 
0 
0 
0 
0 
0 
0 
0 
0 
0 
0 
0 
0 
0 
0 
0 
0 
0 
0 
0 
0 
0 
0 
0 
0 
0 
0 
0 
0 
0 
0 
0 
0 
0 
0 
0 
0 
0 
0 
0 
0 
0 
0 
0 
0 
0 
0 
0 
0 
0 
0 
0 
0 
0 
0 
0 
0 
0 
0 
0 
0 
0 
0 
0 
0 
0 
0 
0 
0 
0 
0 
0 
0 
0 
0 
0 
0 
0 
0 
0 
0 
0 
0 
0 
0 
0 
0 
0 
0 
0 
0 
0 
0 
0 
0 
0 
0 
0 
0 
0 
0 
0 
0 
0 
0 
0 
0 
0 
0 
0 
0 
0 
0 
0 
0 
0 
0 
0 
0 
0 
0 
0 
0 
0 
0 
0 
0 
0 
0 
0 
0 
0 
0 
0 
0 
0 
0 
0 
0 
0 
0 
0 
0 
0 
0 
0 
0 
0 
0 
0 
0 
0 
0 
0 
0 
0 
0 
0 
0 
0 
0 
0 
0 
0 
0 
0 
0 
0 
0 
0 
0 
0 
0 
0 
0 
0 
0 
0 
0 
0 
0 
0 
0 
0 
0 
0 
0 
0 
0 
0 
0 
0 
0 
0 
0 
0 
0 
0 
0 
0 
0 
0 
0 
0 
0 
0 
0 
0 
0 
0 
0 
0 
0 
0 
0 
0 
0 
0 
0 
0 
0 
0 
0 
0 
0 
0 
0 
0 
0 
0 
0 
0 
0 
0 
0 
0 
0 
0 
0 
0 
0 
0 
0 
0 
0 
0 
0 
0 
0 
0 
0 
0 
0 
0 
0 
0 
0 
0 
0 
0 
0 
0 
0 
0 
0 
0 
0 
0 
0 
0 
0 
0 
0 
0 
0 
0 
0 
0 
0 
0 
0 
0 
0 
0 
0 
0 
0 
0 
0 
0 
0 
0 
0 
0 
0 
0 
0 
0 
0 
0 
0 
0 
0 
0 
0 
0 
0 
0 
0 
0 
0 
0 
0 
0 
0 
0 
0 
0 
0 
0 
0 
0 
0 
0 
0 
0 
0 
0 
0 
0 
0 
0 
0 
0 
0 
0 
0 
0 
0 
0 
0 
0 
0 
0 
0 
0 
0 
0 
0 
0 
0 
0 
0 
0 
0 
0 
0 
0 
0 
0 
0 
0 
0 
0 
0 
0 
0 
0 
0 
0 
0 
0 
0 
0 
0 
0 
0 
0 
0 
0 
0 
0 
0 
0 
0 
0 
0 
0 
0 
0 
0 
0 
0 
0 
0 
0 
0 
0 
0 
0 
0 
0 
0 
0 
0 
0 
0 
0 
0 
0 
0 
0 
0 
0 
0 
0 
0 
0 
0 
0 
0 
0 
0 
0 
0 
0 
0 
0 
0 
0 
0 
0 
0 
0 
0 
0 
0 
0 
0 
0 
0 
0 
0 
0 
0 
0 
0 
0 
0 
0 
0 
0 
0 
0 
0 
0 
0 
0 
0 
0 
0 
0 
0 
0 
0 
0 
0 
0 
0 
0 
0 
0 
0 
0 
0 
0 
0 
0 
0 
0 
0 
0 
0 
0 
0 
0 
0 
0 
0 
0 
0 
0 
0 
0 
0 
0 
0 
0 
0 
0 
0 
0 
0 
0 
0 
0 
0 
0 
0 
0 
0 
0 
0 
0 
0 
0 
0 
0 
0 
0 
0 
0 
0 
0 
0 
0 
0 
0 
0 
0 
0 
0 
0 
0 
0 
0 
0 
0 
0 
0 
0 
0 
0 
0 
0 
0 
0 
0 
0 
0 
0 
0 
0 
0 
0 
0 
0 
0 
0 
0 
0 
0 
0 
0 
0 
0 
0 
0 
0 
0 
0 
0 
0 
0 
0 
0 
0 
0 
0 
0 
0 
0 
0 
0 
0 
0 
0 
0 
0 
0 
0 
0 
0 
0 
0 
0 
0 
0 
0 
0 
0 
0 
0 
0 
0 
0 
0 
0 
0 
0 
0 
0 
0 
0 
0 
0 
0 
0 
0 
0 
0 
0 
0 
0 
0 
0 
0 
0 
0 
0 
0 
0 
0 
0 
0 
0 
0 
0 
0 
0 
0 
0 
0 
0 
0 
0 
0 
0 
0 
0 
0 
0 
0 
0 
0 
0 
0 
0 
0 
0 
0 
0 
0 
0 
0 
0 
0 
0 
0 
0 
0 
0 
0 
0 
0 
0 
0 
0 
0 
0 
0 
0 
0 
0 
0 
0 
0 
0 
0 
0 
0 
0 
0 
0 
0 
0 
0 
0 
0 
0 
0 
0 
0 
0 
0 
0 
0 
0 
0 
0 
0 
0 
0 
0 
0 
0 
0 
0 
0 
0 
0 
0 
0 
0 
0 
0 
0 
0 
0 
0 
0 
0 
0 
0 
0 
0 
0 
0 
0 
0 
0 
0 
0 
0 
0 
0 
0 
0 
0 
0 
0 
0 
0 
0 
0 
0 
0 
0 
0 
0 
0 
0 
0 
0 
0 
0 
0 
0 
0 
0 
0 
0 
0 
0 
0 
0 
0 
0 
0 
0 
0 
0 
0 
0 
0 
0 
0 
0 
0 
0 
0 
0 
0 
0 
0 
0 
0 
0 
0 
0 
0 
0 
0 
0 
0 
0 
0 
0 
0 
0 
0 
0 
0 
0 
0 
0 
0 
0 
0 
0 
0 
0 
0 
0 
0 
0 
0 
0 
0 
0 
0 
0 
0 
0 
0 
0 
0 
0 
0 
0 
0 
0 
0 
0 
0 
0 
0 
0 
0 
0 
0 
0 
0 
0 
0 
0 
0 
0 
0 
0 
0 
0 
0 
0 
0 
0 
0 
0 
0 
0 
0 
0 
0 
0 
0 
0 
0 
0 
0 
0 
0 
0 
0 
0 
0 
0 
0 
0 
0 
0 
0 
0 
0 
0 
0 
0 
0 
0 
0 
0 
0 
0 
0 
0 
0 
0 
0 
0 
0 
0 
0 
0 
0 
0 
0 
0 
0 
0 
0 
0 
0 
0 
0 
0 
0 
0 
0 
0 
0 
0 
0 
0 
0 
0 
0 
0 
0 
0 
0 
0 
0 
0 
0 
0 
0 
0 
0 
0 
0 
0 
0 
0 
0 
0 
0 
0 
0 
0 
0 
0 
0 
0 
0 
0 
0 
0 
0 
0 
0 
0 
0 
0 
0 
0 
0 
0 
0 
0 
0 
0 
0 
0 
0 
0 
0 
0 
0 
0 
0 
0 
0 
0 
0 
0 
0 
0 
0 
0 
0 
0 
0 
0 
0 
0 
0 
0 
0 
0 
0 
0 
0 
0 
0 
0 
0 
0 
0 
0 
0 
0 
0 
0 
0 
0 
0 
0 
0 
0 
0 
0 
0 
0 
0 
0 
0 
0 
0 
0 
0 
0 
0 
0 
0 
0 
0 
0 
0 
0 
0 
0 
0 
0 
0 
0 
0 
0 
0 
0 
0 
0 
0 
0 
0 
0 
0 
0 
0 
0 
0 
0 
0 
0 
0 
0 
0 
0 
0 
0 
0 
0 
0 
0 
0 
0 
0 
0 
0 
0 
0 
0 
0 
0 
0 
0 
0 
0 
0 
0 
0 
0 
0 
0 
0 
0 
0 
0 
0 
0 
0 
0 
0 
0 
0 
0 
0 
0 
0 
0 
0 
0 
0 
0 
0 
0 
0 
0 
0 
0 
0 
0 
0 
0 
0 
0 
0 
0 
0 
0 
0 
0 
0 
0 
0 
0 
0 
0 
0 
0 
0 
0 
0 
0 
0 
0 
0 
0 
0 
0 
0 
0 
0 
0 
0 
0 
0 
0 
0 
0 
0 
0 
0 
0 
0 
0 
0 
0 
0 
0 
0 
0 
0 
0 
0 
0 
0 
0 
0 
0 
0 
0 
0 
0 
0 
0 
0 
0 
0 
0 
0 
0 
0 
0 
0 
0 
0 
0 
0 
0 
0 
0 
0 
0 
0 
0 
0 
0 
0 
0 
0 
0 
0 
0 
0 
0 
0 
0 
0 
0 
0 
0 
0 
0 
0 
0 
0 
0 
0 
0 
0 
0 
0 
0 
0 
0 
0 
0 
0 
0 
0 
0 
0 
0 
0 
0 
0 
0 
0 
0 
0 
0 
0 
0 
0 
0 
0 
0 
0 
0 
0 
0 
0 
0 
0 
0 
0 
0 
0 
0 
0 
0 
0 
0 
0 
0 
0 
0 
0 
0 
0 
0 
0 
0 
0 
0 
0 
0 
0 
0 
0 
0 
0 
0 
0 
0 
0 
0 
0 
0 
0 
0 
0 
0 
0 
0 
0 
0 
0 
0 
0 
0 
0 
0 
0 
0 
0 
0 
0 
0 
0 
0 
0 
0 
0 
0 
0 
0 
0 
0 
0 
0 
0 
0 
0 
0 
0 
0 
0 
0 
0 
0 
0 
0 
0 
0 
0 
0 
0 
0 
0 
0 
0 
0 
0 
0 
0 
0 
0 
0 
0 
0 
0 
0 
0 
0 
0 
0 
0 
0 
0 
0 
0 
0 
0 
0 
0 
0 
0 
0 
0 
0 
0 
0 
0 
0 
0 
0 
0 
0 
0 
0 
0 
0 
0 
0 
0 
0 
0 
0 
0 
0 
0 
0 
0 
0 
0 
0 
0 
0 
0 
0 
0 
0 
0 
0 
0 
0 
0 
0 
0 
0 
0 
0 
0 
0 
0 
0 
0 
0 
0 
0 
0 
0 
0 
0 
0 
0 
0 
0 
0 
0 
0 
0 
0 
0 
0 
0 
0 
0 
0 
0 
0 
0 
0 
0 
0 
0 
0 
0 
0 
0 
0 
0 
0 
0 
0 
0 
0 
0 
0 
0 
0 
0 
0 
0 
0 
0 
0 
0 
0 
0 
0 
0 
0 
0 
0 
0 
0 
0 
0 
0 
0 
0 
0 
0 
0 
0 
0 
0 
0 
0 
0 
0 
0 
0 
0 
0 
0 
0 
0 
0 
0 
0 
0 
0 
0 
0 
0 
0 
0 
0 
0 
0 
0 
0 
0 
0 
0 
0 
0 
0 
0 
0 
0 
0 
0 
0 
0 
0 
0 
0 
0 
0 
0 
0 
0 
0 
0 
0 
0 
0 
0 
0 
0 
0 
0 
0 
0 
0 
0 
0 
0 
0 
0 
0 
0 
0 
0 
0 
0 
0 
0 
0 
0 
0 
0 
0 
0 
0 
0 
0 
0 
0 
0 
0 
0 
0 
0 
0 
0 
0 
0 
0 
0 
0 
0 
0 
0 
0 
0 
0 
0 
0 
0 
0 
0 
0 
0 
0 
0 
0 
0 
0 
0 
0 
0 
0 
0 
0 
0 
0 
0 
0 
0 
0 
0 
0 
0 
0 
0 
0 
0 
0 
0 
0 
0 
0 
0 
0 
0 
0 
0 
0 
0 
0 
0 
0 
0 
0 
0 
0 
0 
0 
0 
0 
0 
0 
0 
0 
0 
0 
0 
0 
0 
0 
0 
0 
0 
0 
0 
0 
0 
0 
0 
0 
0 
0 
0 
0 
0 
0 
0 
0 
0 
0 
0 
0 
0 
0 
0 
0 
0 
0 
0 
0 
0 
0 
0 
0 
0 
0 
0 
0 
0 
0 
0 
0 
0 
0 
0 
0 
0 
0 
0 
0 
0 
0 
0 
0 
0 
0 
0 
0 
0 
0 
0 
0 
0 
0 
0 
0 
0 
0 
0 
0 
0 
0 
0 
0 
0 
0 
0 
0 
0 
0 
0 
0 
0 
0 
0 
0 
0 
0 
0 
0 
0 
0 
0 
0 
0 
0 
0 
0 
0 
0 
0 
0 
0 
0 
0 
0 
0 
0 
0 
0 
0 
0 
0 
0 
0 
0 
0 
0 
0 
0 
0 
0 
0 
0 
0 
0 
0 
0 
0 
0 
0 
0 
0 
0 
0 
0 
0 
0 
0 
0 
0 
0 
0 
0 
0 
0 
0 
0 
0 
0 
0 
0 
0 
0 
0 
0 
0 
0 
0 
0 
0 
0 
0 
0 
0 
0 
0 
0 
0 
0 
0 
0 
0 
0 
0 
0 
0 
0 
0 
0 
0 
0 
0 
0 
0 
0 
0 
0 
0 
0 
0 
0 
0 
0 
0 
0 
0 
0 
0 
0 
0 
0 
0 
0 
0 
0 
0 
0 
0 
0 
0 
0 
0 
0 
0 
0 
0 
0 
0 
0 
0 
0 
0 
0 
0 
0 
0 
0 
0 
0 
0 
0 
0 
0 
0 
0 
0 
0 
0 
0 
0 
0 
0 
0 
0 
0 
0 
0 
0 
0 
0 
0 
0 
0 
0 
0 
0 
0 
0 
0 
0 
0 
0 
0 
0 
0 
0 
0 
0 
0 
0 
0 
0 
0 
0 
0 
0 
0 
0 
0 
0 
0 
0 
0 
0 
0 
0 
0 
0 
0 
0 
0 
0 
0 
0 
0 
0 
0 
0 
0 
0 
0 
0 
0 
0 
0 
0 
0 
0 
0 
0 
0 
0 
0 
0 
0 
0 
0 
0 
0 
0 
0 
0 
0 
0 
0 
0 
0 
0 
0 
0 
0 
0 
0 
0 
0 
0 
0 
0 
0 
0 
0 
0 
0 
0 
0 
0 
0 
0 
0 
0 
0 
0 
0 
0 
0 
0 
0 
0 
0 
0 
0 
0 
0 
0 
0 
0 
0 
0 
0 
0 
0 
0 
0 
0 
0 
0 
0 
0 
0 
0 
0 
0 
0 
0 
0 
0 
0 
0 
0 
0 
0 
0 
0 
0 
0 
0 
0 
0 
0 
0 
0 
0 
0 
0 
0 
0 
0 
0 
0 
0 
0 
0 
0 
0 
0 
0 
0 
0 
0 
0 
0 
0 
0 
0 
0 
0 
0 
0 
0 
0 
0 
0 
0 
0 
0 
0 
0 
0 
0 
0 
0 
0 
0 
0 
0 
0 
0 
0 
0 
0 
0 
0 
0 
0 
0 
0 
0 
0 
0 
0 
0 
0 
0 
0 
0 
0 
0 
0 
0 
0 
0 
0 
0 
0 
0 
0 
0 
0 
0 
0 
0 
0 
0 
0 
0 
0 
0 
0 
0 
0 
0 
0 
0 
0 
0 
0 
0 
0 
0 
0 
0 
0 
0 
0 
0 
0 
0 
0 
0 
0 
0 
0 
0 
0 
0 
0 
0 
0 
0 
0 
0 
0 
0 
0 
0 
0 
0 
0 
0 
0 
0 
0 
0 
0 
0 
0 
0 
0 
0 
0 
0 
0 
0 
0 
0 
0 
0 
0 
0 
0 
0 
0 
0 
0 
0 
0 
0 
0 
0 
0 
0 
0 
0 
0 
0 
0 
0 
0 
0 
0 
0 
0 
0 
0 
0 
0 
0 
0 
0 
0 
0 
0 
0 
0 
0 
0 
0 
0 
0 
0 
0 
0 
0 
0 
0 
0 
0 
0 
0 
0 
0 
0 
0 
0 
0 
0 
0 
0 
0 
0 
0 
0 
0 
0 
0 
0 
0 
0 
0 
0 
0 
0 
0 
0 
0 
0 
0 
0 
0 
0 
0 
0 
0 
0 
0 
0 
0 
0 
0 
0 
0 
0 
0 
0 
0 
0 
0 
0 
0 
0 
0 
0 
0 
0 
0 
0 
0 
0 
0 
0 
0 
0 
0 
0 
0 
0 
0 
0 
0 
0 
0 
0 
0 
0 
0 
0 
0 
0 
0 
0 
0 
0 
0 
0 
0 
0 
0 
0 
0 
0 
0 
0 
0 
0 
0 
0 
0 
0 
0 
0 
0 
0 
0 
0 
0 
0 
0 
0 
0 
0 
0 
0 
0 
0 
0 
0 
0 
0 
0 
0 
0 
0 
0 
0 
0 
0 
0 
0 
0 
0 
0 
0 
0 
0 
0 
0 
0 
0 
0 
0 
0 
0 
0 
0 
0 
0 
0 
0 
0 
0 
0 
0 
0 
0 
0 
0 
0 
0 
0 
0 
0 
0 
0 
0 
0 
0 
0 
0 
0 
0 
0 
0 
0 
0 
0 
0 
0 
0 
0 
0 
0 
0 
0 
0 
0 
0 
0 
0 
0 
0 
0 
0 
0 
0 
0 
0 
0 
0 
0 
0 
0 
0 
0 
0 
0 
0 
0 
0 
0 
0 
0 
0 
0 
0 
0 
0 
0 
0 
0 
0 
0 
0 
0 
0 
0 
0 
0 
0 
0 
0 
0 
0 
0 
0 
0 
0 
0 
0 
0 
0 
0 
0 
0 
0 
0 
0 
0 
0 
0 
0 
0 
0 
0 
0 
0 
0 
0 
0 
0 
0 
0 
0 
0 
0 
0 
0 
0 
0 
0 
0 
0 
0 
0 
0 
0 
0 
0 
0 
0 
0 
0 
0 
0 
0 
0 
0 
0 
0 
0 
0 
0 
0 
0 
0 
0 
0 
0 
0 
0 
0 
0 
0 
0 
0 
0 
0 
0 
0 
0 
0 
0 
0 
0 
0 
0 
0 
0 
0 
0 
0 
0 
0 
0 
0 
0 
0 
0 
0 
0 
0 
0 
0 
0 
0 
0 
0 
0 
0 
0 
0 
0 
0 
0 
0 
0 
0 
0 
0 
0 
0 
0 
0 
0 
0 
0 
0 
0 
0 
0 
0 
0 
0 
0 
0 
0 
0 
0 
0 
0 
0 
0 
0 
0 
0 
0 
0 
0 
0 
0 
0 
0 
0 
0 
0 
0 
0 
0 
0 
0 
0 
0 
0 
0 
0 
0 
0 
0 
0 
0 
0 
0 
0 
0 
0 
0 
0 
0 
0 
0 
0 
0 
0 
0 
0 
0 
0 
0 
0 
0 
0 
0 
0 
0 
0 
0 
0 
0 
0 
0 
0 
0 
0 
0 
0 
0 
0 
0 
0 
0 
0 
0 
0 
0 
0 
0 
0 
0 
0 
0 
0 
0 
0 
0 
0 
0 
0 
0 
0 
0 
0 
0 
0 
0 
0 
0 
0 
0 
0 
0 
0 
0 
0 
0 
0 
0 
0 
0 
0 
0 
0 
0 
0 
0 
0 
0 
0 
0 
0 
0 
0 
0 
0 
0 
0 
0 
0 
0 
0 
0 
0 
0 
0 
0 
0 
0 
0 
0 
0 
0 
0 
0 
0 
0 
0 
0 
0 
0 
0 
0 
0 
0 
0 
0 
0 
0 
0 
0 
0 
0 
0 
0 
0 
0 
0 
0 
0 
0 
0 
0 
0 
0 
0 
0 
0 
0 
0 
0 
0 
0 
0 
0 
0 
0 
0 
0 
0 
0 
0 
0 
0 
0 
0 
0 
0 
0 
0 
0 
0 
0 
0 
0 
0 
0 
0 
0 
0 
0 
0 
0 
0 
0 
0 
0 
0 
0 
0 
0 
0 
0 
0 
0 
0 
0 
0 
0 
0 
0 
0 
0 
0 
0 
0 
0 
0 
0 
0 
0 
0 
0 
0 
0 
0 
0 
0 
0 
0 
0 
0 
0 
0 
0 
0 
0 
0 
0 
0 
0 
0 
0 
0 
0 
0 
0 
0 
0 
0 
0 
0 
0 
0 
0 
0 
0 
0 
0 
0 
0 
0 
0 
0 
0 
0 
0 
0 
0 
0 
0 
0 
0 
0 
0 
0 
0 
0 
0 
0 
0 
0 
0 
0 
0 
0 
0 
0 
0 
0 
0 
0 
0 
0 
0 
0 
0 
0 
0 
0 
0 
0 
0 
0 
0 
0 
0 
0 
0 
0 
0 
0 
0 
0 
0 
0 
0 
0 
0 
0 
0 
0 
0 
0 
0 
0 
0 
0 
0 
0 
0 
0 
0 
0 
0 
0 
0 
0 
0 
0 
0 
0 
0 
0 
0 
0 
0 
0 
0 
0 
0 
0 
0 
0 
0 
0 
0 
0 
0 
0 
0 
0 
0 
0 
0 
0 
0 
0 
0 
0 
0 
0 
0 
0 
0 
0 
0 
0 
0 
0 
0 
0 
0 
0 
0 
0 
0 
0 
0 
0 
0 
0 
0 
0 
0 
0 
0 
0 
0 
0 
0 
0 
0 
0 
0 
0 
0 
0 
0 
0 
0 
0 
0 
0 
0 
0 
0 
0 
0 
0 
0 
0 
0 
0 
0 
0 
0 
0 
0 
0 
0 
0 
0 
0 
0 
0 
0 
0 
0 
0 
0 
0 
0 
0 
0 
0 
0 
0 
0 
0 
0 
0 
0 
0 
0 
0 
0 
0 
0 
0 
0 
0 
0 
0 
0 
0 
0 
0 
0 
0 
0 
0 
0 
0 
0 
0 
0 
0 
0 
0 
0 
0 
0 
0 
0 
0 
0 
0 
0 
0 
0 
0 
0 
0 
0 
0 
0 
0 
0 
0 
0 
0 
0 
0 
0 
0 
0 
0 
0 
0 
0 
0 
0 
0 
0 
0 
0 
0 
0 
0 
0 
0 
0 
0 
0 
0 
0 
0 
0 
0 
0 
0 
0 
0 
0 
0 
0 
0 
0 
0 
0 
0 
0 
0 
0 
0 
0 
0 
0 
0 
0 
0 
0 
0 
0 
0 
0 
0 
0 
0 
0 
0 
0 
0 
0 
0 
0 
0 
0 
0 
0 
0 
0 
0 
0 
0 
0 
0 
0 
0 
0 
0 
0 
0 
0 
0 
0 
0 
0 
0 
0 
0 
0 
0 
0 
0 
0 
0 
0 
0 
0 
0 
0 
0 
0 
0 
0 
0 
0 
0 
0 
0 
0 
0 
0 
0 
0 
0 
0 
0 
0 
0 
0 
0 
0 
0 
0 
0 
0 
0 
0 
0 
0 
0 
0 
0 
0 
0 
0 
0 
0 
0 
0 
0 
0 
0 
0 
0 
0 
0 
0 
0 
0 
0 
0 
0 
0 
0 
0 
0 
0 
0 
0 
0 
0 
0 
0 
0 
0 
0 
0 
0 
0 
0 
0 
0 
0 
0 
0 
0 
0 
0 
0 
0 
0 
0 
0 
0 
0 
0 
0 
0 
0 
0 
0 
0 
0 
0 
0 
0 
0 
0 
0 
0 
0 
0 
0 
0 
0 
0 
0 
0 
0 
0 
0 
0 
0 
0 
0 
0 
0 
0 
0 
0 
0 
0 
0 
0 
0 
0 
0 
0 
0 
0 
0 
0 
0 
0 
0 
0 
0 
0 
0 
0 
0 
0 
0 
0 
0 
0 
0 
0 
0 
0 
0 
0 
0 
0 
0 
0 
0 
0 
0 
0 
0 
0 
0 
0 
0 
0 
0 
0 
0 
0 
0 
0 
0 
0 
0 
0 
0 
0 
0 
0 
0 
0 
0 
0 
0 
0 
0 
0 
0 
0 
0 
0 
0 
0 
0 
0 
0 
0 
0 
0 
0 
0 
0 
0 
0 
0 
0 
0 
0 
0 
0 
0 
0 
0 
0 
0 
0 
0 
0 
0 
0 
0 
0 
0 
0 
0 
0 
0 
0 
0 
0 
0 
0 
0 
0 
0 
0 
0 
0 
0 
0 
0 
0 
0 
0 
0 
0 
0 
0 
0 
0 
0 
0 
0 
0 
0 
0 
0 
0 
0 
0 
0 
0 
0 
0 
0 
0 
0 
0 
0 
0 
0 
0 
0 
0 
0 
0 
0 
0 
0 
0 
0 
0 
0 
0 
0 
0 
0 
0 
0 
0 
0 
0 
0 
0 
0 
0 
0 
0 
0 
0 
0 
0 
0 
0 
0 
0 
0 
0 
0 
0 
0 
0 
0 
0 
0 
0 
0 
0 
0 
0 
0 
0 
0 
0 
0 
0 
0 
0 
0 
0 
0 
0 
0 
0 
0 
0 
0 
0 
0 
0 
0 
0 
0 
0 
0 
0 
0 
0 
0 
0 
0 
0 
0 
0 
0 
0 
0 
0 
0 
0 
0 
0 
0 
0 
0 
0 
0 
0 
0 
0 
0 
0 
0 
0 
0 
0 
0 
0 
0 
0 
0 
0 
0 
0 
0 
0 
0 
0 
0 
0 
0 
0 
0 
0 
0 
0 
0 
0 
0 
0 
0 
0 
0 
0 
0 
0 
0 
0 
0 
0 
0 
0 
0 
0 
0 
0 
0 
0 
0 
0 
0 
0 
0 
0 
0 
0 
0 
0 
0 
0 
0 
0 
0 
0 
0 
0 
0 
0 
0 
0 
0 
0 
0 
0 
0 
0 
0 
0 
0 
0 
0 
0 
0 
0 
0 
0 
0 
0 
0 
0 
0 
0 
0 
0 
0 
0 
0 
0 
0 
0 
0 
0 
0 
0 
0 
0 
0 
0 
0 
0 
0 
0 
0 
0 
0 
0 
0 
0 
0 
0 
0 
0 
0 
0 
0 
0 
0 
0 
0 
0 
0 
0 
0 
0 
0 
0 
0 
0 
0 
0 
0 
0 
0 
0 
0 
0 
0 
0 
0 
0 
0 
0 
0 
0 
0 
0 
0 
0 
0 
0 
0 
0 
0 
0 
0 
0 
0 
0 
0 
0 
0 
0 
0 
0 
0 
0 
0 
0 
0 
0 
0 
0 
0 
0 
0 
0 
0 
0 
0 
0 
0 
0 
0 
0 
0 
0 
0 
0 
0 
0 
0 
0 
0 
0 
0 
0 
0 
0 
0 
0 
0 
0 
0 
0 
0 
0 
0 
0 
0 
0 
0 
0 
0 
0 
0 
0 
0 
0 
0 
0 
0 
0 
0 
0 
0 
0 
0 
0 
0 
0 
0 
0 
0 
0 
0 
0 
0 
0 
0 
0 
0 
0 
0 
0 
0 
0 
0 
0 
0 
0 
0 
0 
0 
0 
0 
0 
0 
0 
0 
0 
0 
0 
0 
0 
0 
0 
0 
0 
0 
0 
0 
0 
0 
0 
0 
0 
0 
0 
0 
0 
0 
0 
0 
0 
0 
0 
0 
0 
0 
0 
0 
0 
0 
0 
0 
0 
0 
0 
0 
0 
0 
0 
0 
0 
0 
0 
0 
0 
0 
0 
0 
0 
0 
0 
0 
0 
0 
0 
0 
0 
0 
0 
0 
0 
0 
0 
0 
0 
0 
0 
0 
0 
0 
0 
0 
0 
0 
0 
0 
0 
0 
0 
0 
0 
0 
0 
0 
0 
0 
0 
0 
0 
0 
0 
0 
0 
0 
0 
0 
0 
0 
0 
0 
0 
0 
0 
0 
0 
0 
0 
0 
0 
0 
0 
0 
0 
0 
0 
0 
0 
0 
0 
0 
0 
0 
0 
0 
0 
0 
0 
0 
0 
0 
0 
0 
0 
0 
0 
0 
0 
0 
0 
0 
0 
0 
0 
0 
0 
0 
0 
0 
0 
0 
0 
0 
0 
0 
0 
0 
0 
0 
0 
0 
0 
0 
0 
0 
0 
0 
0 
0 
0 
0 
0 
0 
0 
0 
0 
0 
0 
0 
0 
0 
0 
0 
0 
0 
0 
0 
0 
0 
0 
0 
0 
0 
0 
0 
0 
0 
0 
0 
0 
0 
0 
0 
0 
0 
0 
0 
0 
0 
0 
0 
0 
0 
0 
0 
0 
0 
0 
0 
0 
0 
0 
0 
0 
0 
0 
0 
0 
0 
0 
0 
0 
0 
0 
0 
0 
0 
0 
0 
0 
0 
0 
0 
0 
0 
0 
0 
0 
0 
0 
0 
0 
0 
0 
0 
0 
0 
0 
0 
0 
0 
0 
0 
0 
0 
0 
0 
0 
0 
0 
0 
0 
0 
0 
0 
0 
0 
0 
0 
0 
0 
0 
0 
0 
0 
0 
0 
0 
0 
0 
0 
0 
0 
0 
0 
0 
0 
0 
0 
0 
0 
0 
0 
0 
0 
0 
0 
0 
0 
0 
0 
0 
0 
0 
0 
0 
0 
0 
0 
0 
0 
0 
0 
0 
0 
0 
0 
0 
0 
0 
0 
0 
0 
0 
0 
0 
0 
0 
0 
0 
0 
0 
0 
0 
0 
0 
0 
0 
0 
0 
0 
0 
0 
0 
0 
0 
0 
0 
0 
0 
0 
0 
0 
0 
0 
0 
0 
0 
0 
0 
0 
0 
0 
0 
0 
0 
0 
0 
0 
0 
0 
0 
0 
0 
0 
0 
0 
0 
0 
0 
0 
0 
0 
0 
0 
0 
0 
0 
0 
0 
0 
0 
0 
0 
0 
0 
0 
0 
0 
0 
0 
0 
0 
0 
0 
0 
0 
0 
0 
0 
0 
0 
0 
0 
0 
0 
0 
0 
0 
0 
0 
0 
0 
0 
0 
0 
0 
0 
0 
0 
0 
0 
0 
0 
0 
0 
0 
0 
0 
0 
0 
0 
0 
0 
0 
0 
0 
0 
0 
0 
0 
0 
0 
0 
0 
0 
0 
0 
0 
0 
0 
0 
0 
0 
0 
0 
0 
0 
0 
0 
0 
0 
0 
0 
0 
0 
0 
0 
0 
0 
0 
0 
0 
0 
0 
0 
0 
0 
0 
0 
0 
0 
0 
0 
0 
0 
0 
0 
0 
0 
0 
0 
0 
0 
0 
0 
0 
0 
0 
0 
0 
0 
0 
0 
0 
0 
0 
0 
0 
0 
0 
0 
0 
0 
0 
0 
0 
0 
0 
0 
0 
0 
0 
0 
0 
0 
0 
0 
0 
0 
0 
0 
0 
0 
0 
0 
0 
0 
0 
0 
0 
0 
0 
0 
0 
0 
0 
0 
0 
0 
0 
0 
0 
0 
0 
0 
0 
0 
0 
0 
0 
0 
0 
0 
0 
0 
0 
0 
0 
0 
0 
0 
0 
0 
0 
0 
0 
0 
0 
0 
0 
0 
0 
0 
0 
0 
0 
0 
0 
0 
0 
0 
0 
0 
0 
0 
0 
0 
0 
0 
0 
0 
0 
0 
0 
0 
0 
0 
0 
0 
0 
0 
0 
0 
0 
0 
0 
0 
0 
0 
0 
0 
0 
0 
0 
0 
0 
0 
0 
0 
0 
0 
0 
0 
0 
0 
0 
0 
0 
0 
0 
0 
0 
0 
0 
0 
0 
0 
0 
0 
0 
0 
0 
0 
0 
0 
0 
0 
0 
0 
0 
0 
0 
0 
0 
0 
0 
0 
0 
0 
0 
0 
0 
0 
0 
0 
0 
0 
0 
0 
0 
0 
0 
0 
0 
0 
0 
0 
0 
0 
0 
0 
0 
0 
0 
0 
0 
0 
0 
0 
0 
0 
0 
0 
0 
0 
0 
0 
0 
0 
0 
0 
0 
0 
0 
0 
0 
0 
0 
0 
0 
0 
0 
0 
0 
0 
0 
0 
0 
0 
0 
0 
0 
0 
0 
0 
0 
0 
0 
0 
0 
0 
0 
0 
0 
0 
0 
0 
0 
0 
0 
0 
0 
0 
0 
0 
0 
0 
0 
0 
0 
0 
0 
0 
0 
0 
0 
0 
0 
0 
0 
0 
0 
0 
0 
0 
0 
0 
0 
0 
0 
0 
0 
0 
0 
0 
0 
0 
0 
0 
0 
0 
0 
0 
0 
0 
0 
0 
0 
0 
0 
0 
0 
0 
0 
0 
0 
0 
0 
0 
0 
0 
0 
0 
0 
0 
0 
0 
0 
0 
0 
0 
0 
0 
0 
0 
0 
0 
0 
0 
0 
0 
0 
0 
0 
0 
0 
0 
0 
0 
0 
0 
0 
0 
0 
0 
0 
0 
0 
0 
0 
0 
0 
0 
0 
0 
0 
0 
0 
0 
0 
0 
0 
0 
0 
0 
0 
0 
0 
0 
0 
0 
0 
0 
0 
0 
0 
0 
0 
0 
0 
0 
0 
0 
0 
0 
0 
0 
0 
0 
0 
0 
0 
0 
0 
0 
0 
0 
0 
0 
0 
0 
0 
0 
0 
0 
0 
0 
0 
0 
0 
0 
0 
0 
0 
0 
0 
0 
0 
0 
0 
0 
0 
0 
0 
0 
0 
0 
0 
0 
0 
0 
0 
0 
0 
0 
0 
0 
0 
0 
0 
0 
0 
0 
0 
0 
0 
0 
0 
0 
0 
0 
0 
0 
0 
0 
0 
0 
0 
0 
0 
0 
0 
0 
0 
0 
0 
0 
0 
0 
0 
0 
0 
0 
0 
0 
0 
0 
0 
0 
0 
0 
0 
0 
0 
0 
0 
0 
0 
0 
0 
0 
0 
0 
0 
0 
0 
0 
0 
0 
0 
0 
0 
0 
0 
0 
0 
0 
0 
0 
0 
0 
0 
0 
0 
0 
0 
0 
0 
0 
0 
0 
0 
0 
0 
0 
0 
0 
0 
0 
0 
0 
0 
0 
0 
0 
0 
0 
0 
0 
0 
0 
0 
0 
0 
0 
0 
0 
0 
0 
0 
0 
0 
0 
0 
0 
0 
0 
0 
0 
0 
0 
0 
0 
0 
0 
0 
0 
0 
0 
0 
0 
0 
0 
0 
0 
0 
0 
0 
0 
0 
0 
0 
0 
0 
0 
0 
0 
0 
0 
0 
0 
0 
0 
0 
0 
0 
0 
0 
0 
0 
0 
0 
0 
0 
0 
0 
0 
0 
0 
0 
0 
0 
0 
0 
0 
0 
0 
0 
0 
0 
0 
0 
0 
0 
0 
0 
0 
0 
0 
0 
0 
0 
0 
0 
0 
0 
0 
0 
0 
0 
0 
0 
0 
0 
0 
0 
0 
0 
0 
0 
0 
0 
0 
0 
0 
0 
0 
0 
0 
0 
0 
0 
0 
0 
0 
0 
0 
0 
0 
0 
0 
0 
0 
0 
0 
0 
0 
0 
0 
0 
0 
0 
0 
0 
0 
0 
0 
0 
0 
0 
0 
0 
0 
0 
0 
0 
0 
0 
0 
0 
0 
0 
0 
0 
0 
0 
0 
0 
0 
0 
0 
0 
0 
0 
0 
0 
0 
0 
0 
0 
0 
0 
0 
0 
0 
0 
0 
0 
0 
0 
0 
0 
0 
0 
0 
0 
0 
0 
0 
0 
0 
0 
0 
0 
0 
0 
0 
0 
0 
0 
0 
0 
0 
0 
0 
0 
0 
0 
0 
0 
0 
0 
0 
0 
0 
0 
0 
0 
0 
0 
0 
0 
0 
0 
0 
0 
0 
0 
0 
0 
0 
0 
0 
0 
0 
0 
0 
0 
0 
0 
0 
0 
0 
0 
0 
0 
0 
0 
0 
0 
0 
0 
0 
0 
0 
0 
0 
0 
0 
0 
0 
0 
0 
0 
0 
0 
0 
0 
0 
0 
0 
0 
0 
0 
0 
0 
0 
0 
0 
0 
0 
0 
0 
0 
0 
0 
0 
0 
0 
0 
0 
0 
0 
0 
0 
0 
0 
0 
0 
0 
0 
0 
0 
0 
0 
0 
0 
0 
0 
0 
0 
0 
0 
0 
0 
0 
0 
0 
0 
0 
0 
0 
0 
0 
0 
0 
0 
0 
0 
0 
0 
0 
0 
0 
0 
0 
0 
0 
0 
0 
0 
0 
0 
0 
0 
0 
0 
0 
0 
0 
0 
0 
0 
0 
0 
0 
0 
0 
0 
0 
0 
0 
0 
0 
0 
0 
0 
0 
0 
0 
0 
0 
0 
0 
0 
0 
0 
0 
0 
0 
0 
0 
0 
0 
0 
0 
0 
0 
0 
0 
0 
0 
0 
0 
0 
0 
0 
0 
0 
0 
0 
0 
0 
0 
0 
0 
0 
0 
0 
0 
0 
0 
0 
0 
0 
0 
0 
0 
0 
0 
0 
0 
0 
0 
0 
0 
0 
0 
0 
0 
0 
0 
0 
0 
0 
0 
0 
0 
0 
0 
0 
0 
0 
0 
0 
0 
0 
0 
0 
0 
0 
0 
0 
0 
0 
0 
0 
0 
0 
0 
0 
0 
0 
0 
0 
0 
0 
0 
0 
0 
0 
0 
0 
0 
0 
0 
0 
0 
0 
0 
0 
0 
0 
0 
0 
0 
0 
0 
0 
0 
0 
0 
0 
0 
0 
0 
0 
0 
0 
0 
0 
0 
0 
0 
0 
0 
0 
0 
0 
0 
0 
0 
0 
0 
0 
0 
0 
0 
0 
0 
0 
0 
0 
0 
0 
0 
0 
0 
0 
0 
0 
0 
0 
0 
0 
0 
0 
0 
0 
0 
0 
0 
0 
0 
0 
0 
0 
0 
0 
0 
0 
0 
0 
0 
0 
0 
0 
0 
0 
0 
0 
0 
0 
0 
0 
0 
0 
0 
0 
0 
0 
0 
0 
0 
0 
0 
0 
0 
0 
0 
0 
0 
0 
0 
0 
0 
0 
0 
0 
0 
0 
0 
0 
0 
0 
0 
0 
0 
0 
0 
0 
0 
0 
0 
0 
0 
0 
0 
0 
0 
0 
0 
0 
0 
0 
0 
0 
0 
0 
0 
0 
0 
0 
0 
0 
0 
0 
0 
0 
0 
0 
0 
0 
0 
0 
0 
0 
0 
0 
0 
0 
0 
0 
0 
0 
0 
0 
0 
0 
0 
0 
0 
0 
0 
0 
0 
0 
0 
0 
0 
0 
0 
0 
0 
0 
0 
0 
0 
0 
0 
0 
0 
0 
0 
0 
0 
0 
0 
0 
0 
0 
0 
0 
0 
0 
0 
0 
0 
0 
0 
0 
0 
0 
0 
0 
0 
0 
0 
0 
0 
0 
0 
0 
0 
0 
0 
0 
0 
0 
0 
0 
0 
0 
0 
0 
0 
0 
0 
0 
0 
0 
0 
0 
0 
0 
0 
0 
0 
0 
0 
0 
0 
0 
0 
0 
0 
0 
0 
0 
0 
0 
0 
0 
0 
0 
0 
0 
0 
0 
0 
0 
0 
0 
0 
0 
0 
0 
0 
0 
0 
0 
0 
0 
0 
0 
0 
0 
0 
0 
0 
0 
0 
0 
0 
0 
0 
0 
0 
0 
0 
0 
0 
0 
0 
0 
0 
0 
0 
0 
0 
0 
0 
0 
0 
0 
0 
0 
0 
0 
0 
0 
0 
0 
0 
0 
0 
0 
0 
0 
0 
0 
0 
0 
0 
0 
0 
0 
0 
0 
0 
0 
0 
0 
0 
0 
0 
0 
0 
0 
0 
0 
0 
0 
0 
0 
0 
0 
0 
0 
0 
0 
0 
0 
0 
0 
0 
0 
0 
0 
0 
0 
0 
0 
0 
0 
0 
0 
0 
0 
0 
0 
0 
0 
0 
0 
0 
0 
0 
0 
0 
0 
0 
0 
0 
0 
0 
0 
0 
0 
0 
0 
0 
0 
0 
0 
0 
0 
0 
0 
0 
0 
0 
0 
0 
0 
0 
0 
0 
0 
0 
0 
0 
0 
0 
0 
0 
0 
0 
0 
0 
0 
0 
0 
0 
0 
0 
0 
0 
0 
0 
0 
0 
0 
0 
0 
0 
0 
0 
0 
0 
0 
0 
0 
0 
0 
0 
0 
0 
0 
0 
0 
0 
0 
0 
0 
0 
0 
0 
0 
0 
0 
0 
0 
0 
0 
0 
0 
0 
0 
0 
0 
0 
0 
0 
0 
0 
0 
0 
0 
0 
0 
0 
0 
0 
0 
0 
0 
0 
0 
0 
0 
0 
0 
0 
0 
0 
0 
0 
0 
0 
0 
0 
0 
0 
0 
0 
0 
0 
0 
0 
0 
0 
0 
0 
0 
0 
0 
0 
0 
0 
0 
0 
0 
0 
0 
0 
0 
0 
0 
0 
0 
0 
0 
0 
0 
0 
0 
0 
0 
0 
0 
0 
0 
0 
0 
0 
0 
0 
0 
0 
0 
0 
0 
0 
0 
0 
0 
0 
0 
0 
0 
0 
0 
0 
0 
0 
0 
0 
0 
0 
0 
0 
0 
0 
0 
0 
0 
0 
0 
0 
0 
0 
0 
0 
0 
0 
0 
0 
0 
0 
0 
0 
0 
0 
0 
0 
0 
0 
0 
0 
0 
0 
0 
0 
0 
0 
0 
0 
0 
0 
0 
0 
0 
0 
0 
0 
0 
0 
0 
0 
0 
0 
0 
0 
0 
0 
0 
0 
0 
0 
0 
0 
0 
0 
0 
0 
0 
0 
0 
0 
0 
0 
0 
0 
0 
0 
0 
0 
0 
0 
0 
0 
0 
0 
0 
0 
0 
0 
0 
0 
0 
0 
0 
0 
0 
0 
0 
0 
0 
0 
0 
0 
0 
0 
0 
0 
0 
0 
0 
0 
0 
0 
0 
0 
0 
0 
0 
0 
0 
0 
0 
0 
0 
0 
0 
0 
0 
0 
0 
0 
0 
0 
0 
0 
0 
0 
0 
0 
0 
0 
0 
0 
0 
0 
0 
0 
0 
0 
0 
0 
0 
0 
0 
0 
0 
0 
0 
0 
0 
0 
0 
0 
0 
0 
0 
0 
0 
0 
0 
0 
0 
0 
0 
0 
0 
0 
0 
0 
0 
0 
0 
0 
0 
0 
0 
0 
0 
0 
0 
0 
0 
0 
0 
0 
0 
0 
0 
0 
0 
0 
0 
0 
0 
0 
0 
0 
0 
0 
0 
0 
0 
0 
0 
0 
0 
0 
0 
0 
0 
0 
0 
0 
0 
0 
0 
0 
0 
0 
0 
0 
0 
0 
0 
0 
0 
0 
0 
0 
0 
0 
0 
0 
0 
0 
0 
0 
0 
0 
0 
0 
0 
0 
0 
0 
0 
0 
0 
0 
0 
0 
0 
0 
0 
0 
0 
0 
0 
0 
0 
0 
0 
0 
0 
0 
0 
0 
0 
0 
0 
0 
0 
0 
0 
0 
0 
0 
0 
0 
0 
0 
0 
0 
0 
0 
0 
0 
0 
0 
0 
0 
0 
0 
0 
0 
0 
0 
0 
0 
0 
0 
0 
0 
0 
0 
0 
0 
0 
0 
0 
0 
0 
0 
0 
0 
0 
0 
0 
0 
0 
0 
0 
0 
0 
0 
0 
0 
0 
0 
0 
0 
0 
0 
0 
0 
0 
0 
0 
0 
0 
0 
0 
0 
0 
0 
0 
0 
0 
0 
0 
0 
0 
0 
0 
0 
0 
0 
0 
0 
0 
0 
0 
0 
0 
0 
0 
0 
0 
0 
0 
0 
0 
0 
0 
0 
0 
0 
0 
0 
0 
0 
0 
0 
0 
0 
0 
0 
0 
0 
0 
0 
0 
0 
0 
0 
0 
0 
0 
0 
0 
0 
0 
0 
0 
0 
0 
0 
0 
0 
0 
0 
0 
0 
0 
0 
0 
0 
0 
0 
0 
0 
0 
0 
0 
0 
0 
0 
0 
0 
0 
0 
0 
0 
0 
0 
0 
0 
0 
0 
0 
0 
0 
0 
0 
0 
0 
0 
0 
0 
0 
0 
0 
0 
0 
0 
0 
0 
0 
0 
0 
0 
0 
0 
0 
0 
0 
0 
0 
0 
0 
0 
0 
0 
0 
0 
0 
0 
0 
0 
0 
0 
0 
0 
0 
0 
0 
0 
0 
0 
0 
0 
0 
0 
0 
0 
0 
0 
0 
0 
0 
0 
0 
0 
0 
0 
0 
0 
0 
0 
0 
0 
0 
0 
0 
0 
0 
0 
0 
0 
0 
0 
0 
0 
0 
0 
0 
0 
0 
0 
0 
0 
0 
0 
0 
0 
0 
0 
0 
0 
0 
0 
0 
0 
0 
0 
0 
0 
0 
0 
0 
0 
0 
0 
0 
0 
0 
0 
0 
0 
0 
0 
0 
0 
0 
0 
0 
0 
0 
0 
0 
0 
0 
0 
0 
0 
0 
0 
0 
0 
0 
0 
0 
0 
0 
0 
0 
0 
0 
0 
0 
0 
0 
0 
0 
0 
0 
0 
0 
0 
0 
0 
0 
0 
0 
0 
0 
0 
0 
0 
0 
0 
0 
0 
0 
0 
0 
0 
0 
0 
0 
0 
0 
0 
0 
0 
0 
0 
0 
0 
0 
0 
0 
0 
0 
0 
0 
0 
0 
0 
0 
0 
0 
0 
0 
0 
0 
0 
0 
0 
0 
0 
0 
0 
0 
0 
0 
0 
0 
0 
0 
0 
0 
0 
0 
0 
0 
0 
0 
0 
0 
0 
0 
0 
0 
0 
0 
0 
0 
0 
0 
0 
0 
0 
0 
0 
0 
0 
0 
0 
0 
0 
0 
0 
0 
0 
0 
0 
0 
0 
0 
0 
0 
0 
0 
0 
0 
0 
0 
0 
0 
0 
0 
0 
0 
0 
0 
0 
0 
0 
0 
0 
0 
0 
0 
0 
0 
0 
0 
0 
0 
0 
0 
0 
0 
0 
0 
0 
0 
0 
0 
0 
0 
0 
0 
0 
0 
0 
0 
0 
0 
0 
0 
0 
0 
0 
0 
0 
0 
0 
0 
0 
0 
0 
0 
0 
0 
0 
0 
0 
0 
0 
0 
0 
0 
0 
0 
0 
0 
0 
0 
0 
0 
0 
0 
0 
0 
0 
0 
0 
0 
0 
0 
0 
0 
0 
0 
0 
0 
0 
0 
0 
0 
0 
0 
0 
0 
0 
0 
0 
0 
0 
0 
0 
0 
0 
0 
0 
0 
0 
0 
0 
0 
0 
0 
0 
0 
0 
0 
0 
0 
0 
0 
0 
0 
0 
0 
0 
0 
0 
0 
0 
0 
0 
0 
0 
0 
0 
0 
0 
0 
0 
0 
0 
0 
0 
0 
0 
0 
0 
0 
0 
0 
0 
0 
0 
0 
0 
0 
0 
0 
0 
0 
0 
0 
0 
0 
0 
0 
0 
0 
0 
0 
0 
0 
0 
0 
0 
0 
0 
0 
0 
0 
0 
0 
0 
0 
0 
0 
0 
0 
0 
0 
0 
0 
0 
0 
0 
0 
0 
0 
0 
0 
0 
0 
0 
0 
0 
0 
0 
0 
0 
0 
0 
0 
0 
0 
0 
0 
0 
0 
0 
0 
0 
0 
0 
0 
0 
0 
0 
0 
0 
0 
0 
0 
0 
0 
0 
0 
0 
0 
0 
0 
0 
0 
0 
0 
0 
0 
0 
0 
0 
0 
0 
0 
0 
0 
0 
0 
0 
0 
0 
0 
0 
0 
0 
0 
0 
0 
0 
0 
0 
0 
0 
0 
0 
0 
0 
0 
0 
0 
0 
0 
0 
0 
0 
0 
0 
0 
0 
0 
0 
0 
0 
0 
0 
0 
0 
0 
0 
0 
0 
0 
0 
0 
0 
0 
0 
0 
0 
0 
0 
0 
0 
0 
0 
0 
0 
0 
0 
0 
0 
0 
0 
0 
0 
0 
0 
0 
0 
0 
0 
0 
0 
0 
0 
0 
0 
0 
0 
0 
0 
0 
0 
0 
0 
0 
0 
0 
0 
0 
0 
0 
0 
0 
0 
0 
0 
0 
0 
0 
0 
0 
0 
0 
0 
0 
0 
0 
0 
0 
0 
0 
0 
0 
0 
0 
0 
0 
0 
0 
0 
0 
0 
0 
0 
0 
0 
0 
0 
0 
0 
0 
0 
0 
0 
0 
0 
0 
0 
0 
0 
0 
0 
0 
0 
0 
0 
0 
0 
0 
0 
0 
0 
0 
0 
0 
0 
0 
0 
0 
0 
0 
0 
0 
0 
0 
0 
0 
0 
0 
0 
0 
0 
0 
0 
0 
0 
0 
0 
0 
0 
0 
0 
0 
0 
0 
0 
0 
0 
0 
0 
0 
0 
0 
0 
0 
0 
0 
0 
0 
0 
0 
0 
0 
0 
0 
0 
0 
0 
0 
0 
0 
0 
0 
0 
0 
0 
0 
0 
0 
0 
0 
0 
0 
0 
0 
0 
0 
0 
0 
0 
0 
0 
0 
0 
0 
0 
0 
0 
0 
0 
0 
0 
0 
0 
0 
0 
0 
0 
0 
0 
0 
0 
0 
0 
0 
0 
0 
0 
0 
0 
0 
0 
0 
0 
0 
0 
0 
0 
0 
0 
0 
0 
0 
0 
0 
0 
0 
0 
0 
0 
0 
0 
0 
0 
0 
0 
0 
0 
0 
0 
0 
0 
0 
0 
0 
0 
0 
0 
0 
0 
0 
0 
0 
0 
0 
0 
0 
0 
0 
0 
0 
0 
0 
0 
0 
0 
0 
0 
0 
0 
0 
0 
0 
0 
0 
0 
0 
0 
0 
0 
0 
0 
0 
0 
0 
0 
0 
0 
0 
0 
0 
0 
0 
0 
0 
0 
0 
0 
0 
0 
0 
0 
0 
0 
0 
0 
0 
0 
0 
0 
0 
0 
0 
0 
0 
0 
0 
0 
0 
0 
0 
0 
0 
0 
0 
0 
0 
0 
0 
0 
0 
0 
0 
0 
0 
0 
0 
0 
0 
0 
0 
0 
0 
0 
0 
0 
0 
0 
0 
0 
0 
0 
0 
0 
0 
0 
0 
0 
0 
0 
0 
0 
0 
0 
0 
0 
0 
0 
0 
0 
0 
0 
0 
0 
0 
0 
0 
0 
0 
0 
0 
0 
0 
0 
0 
0 
0 
0 
0 
0 
0 
0 
0 
0 
0 
0 
0 
0 
0 
0 
0 
0 
0 
0 
0 
0 
0 
0 
0 
0 
0 
0 
0 
0 
0 
0 
0 
0 
0 
0 
0 
0 
0 
0 
0 
0 
0 
0 
0 
0 
0 
0 
0 
0 
0 
0 
0 
0 
0 
0 
0 
0 
0 
0 
0 
0 
0 
0 
0 
0 
0 
0 
0 
0 
0 
0 
0 
0 
0 
0 
0 
0 
0 
0 
0 
0 
0 
0 
0 
0 
0 
0 
0 
0 
0 
0 
0 
0 
0 
0 
0 
0 
0 
0 
0 
0 
0 
0 
0 
0 
0 
0 
0 
0 
0 
0 
0 
0 
0 
0 
0 
0 
0 
0 
0 
0 
0 
0 
0 
0 
0 
0 
0 
0 
0 
0 
0 
0 
0 
0 
0 
0 
0 
0 
0 
0 
0 
0 
0 
0 
0 
0 
0 
0 
0 
0 
0 
0 
0 
0 
0 
0 
0 
0 
0 
0 
0 
0 
0 
0 
0 
0 
0 
0 
0 
0 
0 
0 
0 
0 
0 
0 
0 
0 
0 
0 
0 
0 
0 
0 
0 
0 
0 
0 
0 
0 
0 
0 
0 
0 
0 
0 
0 
0 
0 
0 
0 
0 
0 
0 
0 
0 
0 
0 
0 
0 
0 
0 
0 
0 
0 
0 
0 
0 
0 
0 
0 
0 
0 
0 
0 
0 
0 
0 
0 
0 
0 
0 
0 
0 
0 
0 
0 
0 
0 
0 
0 
0 
0 
0 
0 
0 
0 
0 
0 
0 
0 
0 
0 
0 
0 
0 
0 
0 
0 
0 
0 
0 
0 
0 
0 
0 
0 
0 
0 
0 
0 
0 
0 
0 
0 
0 
0 
0 
0 
0 
0 
0 
0 
0 
0 
0 
0 
0 
0 
0 
0 
0 
0 
0 
0 
0 
0 
0 
0 
0 
0 
0 
0 
0 
0 
0 
0 
0 
0 
0 
0 
0 
0 
0 
0 
0 
0 
0 
0 
0 
0 
0 
0 
0 
0 
0 
0 
0 
0 
0 
0 
0 
0 
0 
0 
0 
0 
0 
0 
0 
0 
0 
0 
0 
0 
0 
0 
0 
0 
0 
0 
0 
0 
0 
0 
0 
0 
0 
0 
0 
0 
0 
0 
0 
0 
0 
0 
0 
0 
0 
0 
0 
0 
0 
0 
0 
0 
0 
0 
0 
0 
0 
0 
0 
0 
0 
0 
0 
0 
0 
0 
0 
0 
0 
0 
0 
0 
0 
0 
0 
0 
0 
0 
0 
0 
0 
0 
0 
0 
0 
0 
0 
0 
0 
0 
0 
0 
0 
0 
0 
0 
0 
0 
0 
0 
0 
0 
0 
0 
0 
0 
0 
0 
0 
0 
0 
0 
0 
0 
0 
0 
0 
0 
0 
0 
0 
0 
0 
0 
0 
0 
0 
0 
0 
0 
0 
0 
0 
0 
0 
0 
0 
0 
0 
0 
0 
0 
0 
0 
0 
0 
0 
0 
0 
0 
0 
0 
0 
0 
0 
0 
0 
0 
0 
0 
0 
0 
0 
0 
0 
0 
0 
0 
0 
0 
0 
0 
0 
0 
0 
0 
0 
0 
0 
0 
0 
0 
0 
0 
0 
0 
0 
0 
0 
0 
0 
0 
0 
0 
0 
0 
0 
0 
0 
0 
0 
0 
0 
0 
0 
0 
0 
0 
0 
0 
0 
0 
0 
0 
0 
0 
0 
0 
0 
0 
0 
0 
0 
0 
0 
0 
0 
0 
0 
0 
0 

VECTORS Displacement float
0 0 0 
0 0 0 
0 0 0 
0 0 0 
0 0 0 
0 0 0 
0 0 0 
0 0 0 
0 0 0 
0 0 0 
0 0 0 
0 0 0 
0 0 0 
0 0 0 
0 0 0 
0 0 0 
0 0 0 
0 0 0 
0 0 0 
0 0 0 
0 0 0 
0 0 0 
0 0 0 
0 0 0 
0 0 0 
0 0 0 
0 0 0 
0 0 0 
0 0 0 
0 0 0 
0 0 0 
0 0 0 
0 0 0 
0 0 0 
0 0 0 
0 0 0 
0 0 0 
0 0 0 
0 0 0 
0 0 0 
0 0 0 
0 0 0 
0 0 0 
0 0 0 
0 0 0 
0 0 0 
0 0 0 
0 0 0 
0 0 0 
0 0 0 
0 0 0 
0 0 0 
0 0 0 
0 0 0 
0 0 0 
0 0 0 
0 0 0 
0 0 0 
0 0 0 
0 0 0 
0 0 0 
0 0 0 
0 0 0 
0 0 0 
0 0 0 
0 0 0 
0 0 0 
0 0 0 
0 0 0 
0 0 0 
0 0 0 
0 0 0 
0 0 0 
0 0 0 
0 0 0 
0 0 0 
0 0 0 
0 0 0 
0 0 0 
0 0 0 
0 0 0 
0 0 0 
0 0 0 
0 0 0 
0 0 0 
0 0 0 
0 0 0 
0 0 0 
0 0 0 
0 0 0 
0 0 0 
0 0 0 
0 0 0 
0 0 0 
0 0 0 
0 0 0 
0 0 0 
0 0 0 
0 0 0 
0 0 0 
0 0 0 
0 0 0 
0 0 0 
0 0 0 
0 0 0 
0 0 0 
0 0 0 
0 0 0 
0 0 0 
0 0 0 
0 0 0 
0 0 0 
0 0 0 
0 0 0 
0 0 0 
0 0 0 
0 0 0 
0 0 0 
0 0 0 
0 0 0 
0 0 0 
0 0 0 
0 0 0 
0 0 0 
0 0 0 
0 0 0 
0 0 0 
0 0 0 
0 0 0 
0 0 0 
0 0 0 
0 0 0 
0 0 0 
0 0 0 
0 0 0 
0 0 0 
0 0 0 
0 0 0 
0 0 0 
0 0 0 
0 0 0 
0 0 0 
0 0 0 
0 0 0 
0 0 0 
0 0 0 
0 0 0 
0 0 0 
0 0 0 
0 0 0 
0 0 0 
0 0 0 
0 0 0 
0 0 0 
0 0 0 
0 0 0 
0 0 0 
0 0 0 
0 0 0 
0 0 0 
0 0 0 
0 0 0 
0 0 0 
0 0 0 
0 0 0 
0 0 0 
0 0 0 
0 0 0 
0 0 0 
0 0 0 
0 0 0 
0 0 0 
0 0 0 
0 0 0 
0 0 0 
0 0 0 
0 0 0 
0 0 0 
0 0 0 
0 0 0 
0 0 0 
0 0 0 
0 0 0 
0 0 0 
0 0 0 
0 0 0 
0 0 0 
0 0 0 
0 0 0 
0 0 0 
0 0 0 
0 0 0 
0 0 0 
0 0 0 
0 0 0 
0 0 0 
0 0 0 
0 0 0 
0 0 0 
0 0 0 
0 0 0 
0 0 0 
0 0 0 
0 0 0 
0 0 0 
0 0 0 
0 0 0 
0 0 0 
0 0 0 
0 0 0 
0 0 0 
0 0 0 
0 0 0 
0 0 0 
0 0 0 
0 0 0 
0 0 0 
0 0 0 
0 0 0 
0 0 0 
0 0 0 
0 0 0 
0 0 0 
0 0 0 
0 0 0 
0 0 0 
0 0 0 
0 0 0 
0 0 0 
0 0 0 
0 0 0 
0 0 0 
0 0 0 
0 0 0 
0 0 0 
0 0 0 
0 0 0 
0 0 0 
0 0 0 
0 0 0 
0 0 0 
0 0 0 
0 0 0 
0 0 0 
0 0 0 
0 0 0 
0 0 0 
0 0 0 
0 0 0 
0 0 0 
0 0 0 
0 0 0 
0 0 0 
0 0 0 
0 0 0 
0 0 0 
0 0 0 
0 0 0 
0 0 0 
0 0 0 
0 0 0 
0 0 0 
0 0 0 
0 0 0 
0 0 0 
0 0 0 
0 0 0 
0 0 0 
0 0 0 
0 0 0 
0 0 0 
0 0 0 
0 0 0 
0 0 0 
0 0 0 
0 0 0 
0 0 0 
0 0 0 
0 0 0 
0 0 0 
0 0 0 
0 0 0 
0 0 0 
0 0 0 
0 0 0 
0 0 0 
0 0 0 
0 0 0 
0 0 0 
0 0 0 
0 0 0 
0 0 0 
0 0 0 
0 0 0 
0 0 0 
0 0 0 
0 0 0 
0 0 0 
0 0 0 
0 0 0 
0 0 0 
0 0 0 
0 0 0 
0 0 0 
0 0 0 
0 0 0 
0 0 0 
0 0 0 
0 0 0 
0 0 0 
0 0 0 
0 0 0 
0 0 0 
0 0 0 
0 0 0 
0 0 0 
0 0 0 
0 0 0 
0 0 0 
0 0 0 
0 0 0 
0 0 0 
0 0 0 
0 0 0 
0 0 0 
0 0 0 
0 0 0 
0 0 0 
0 0 0 
0 0 0 
0 0 0 
0 0 0 
0 0 0 
0 0 0 
0 0 0 
0 0 0 
0 0 0 
0 0 0 
0 0 0 
0 0 0 
0 0 0 
0 0 0 
0 0 0 
0 0 0 
0 0 0 
0 0 0 
0 0 0 
0 0 0 
0 0 0 
0 0 0 
0 0 0 
0 0 0 
0 0 0 
0 0 0 
0 0 0 
0 0 0 
0 0 0 
0 0 0 
0 0 0 
0 0 0 
0 0 0 
0 0 0 
0 0 0 
0 0 0 
0 0 0 
0 0 0 
0 0 0 
0 0 0 
0 0 0 
0 0 0 
0 0 0 
0 0 0 
0 0 0 
0 0 0 
0 0 0 
0 0 0 
0 0 0 
0 0 0 
0 0 0 
0 0 0 
0 0 0 
0 0 0 
0 0 0 
0 0 0 
0 0 0 
0 0 0 
0 0 0 
0 0 0 
0 0 0 
0 0 0 
0 0 0 
0 0 0 
0 0 0 
0 0 0 
0 0 0 
0 0 0 
0 0 0 
0 0 0 
0 0 0 
0 0 0 
0 0 0 
0 0 0 
0 0 0 
0 0 0 
0 0 0 
0 0 0 
0 0 0 
0 0 0 
0 0 0 
0 0 0 
0 0 0 
0 0 0 
0 0 0 
0 0 0 
0 0 0 
0 0 0 
0 0 0 
0 0 0 
0 0 0 
0 0 0 
0 0 0 
0 0 0 
0 0 0 
0 0 0 
0 0 0 
0 0 0 
0 0 0 
0 0 0 
0 0 0 
0 0 0 
0 0 0 
0 0 0 
0 0 0 
0 0 0 
0 0 0 
0 0 0 
0 0 0 
0 0 0 
0 0 0 
0 0 0 
0 0 0 
0 0 0 
0 0 0 
0 0 0 
0 0 0 
0 0 0 
0 0 0 
0 0 0 
0 0 0 
0 0 0 
0 0 0 
0 0 0 
0 0 0 
0 0 0 
0 0 0 
0 0 0 
0 0 0 
0 0 0 
0 0 0 
0 0 0 
0 0 0 
0 0 0 
0 0 0 
0 0 0 
0 0 0 
0 0 0 
0 0 0 
0 0 0 
0 0 0 
0 0 0 
0 0 0 
0 0 0 
0 0 0 
0 0 0 
0 0 0 
0 0 0 
0 0 0 
0 0 0 
0 0 0 
0 0 0 
0 0 0 
0 0 0 
0 0 0 
0 0 0 
0 0 0 
0 0 0 
0 0 0 
0 0 0 
0 0 0 
0 0 0 
0 0 0 
0 0 0 
0 0 0 
0 0 0 
0 0 0 
0 0 0 
0 0 0 
0 0 0 
0 0 0 
0 0 0 
0 0 0 
0 0 0 
0 0 0 
0 0 0 
0 0 0 
0 0 0 
0 0 0 
0 0 0 
0 0 0 
0 0 0 
0 0 0 
0 0 0 
0 0 0 
0 0 0 
0 0 0 
0 0 0 
0 0 0 
0 0 0 
0 0 0 
0 0 0 
0 0 0 
0 0 0 
0 0 0 
0 0 0 
0 0 0 
0 0 0 
0 0 0 
0 0 0 
0 0 0 
0 0 0 
0 0 0 
0 0 0 
0 0 0 
0 0 0 
0 0 0 
0 0 0 
0 0 0 
0 0 0 
0 0 0 
0 0 0 
0 0 0 
0 0 0 
0 0 0 
0 0 0 
0 0 0 
0 0 0 
0 0 0 
0 0 0 
0 0 0 
0 0 0 
0 0 0 
0 0 0 
0 0 0 
0 0 0 
0 0 0 
0 0 0 
0 0 0 
0 0 0 
0 0 0 
0 0 0 
0 0 0 
0 0 0 
0 0 0 
0 0 0 
0 0 0 
0 0 0 
0 0 0 
0 0 0 
0 0 0 
0 0 0 
0 0 0 
0 0 0 
0 0 0 
0 0 0 
0 0 0 
0 0 0 
0 0 0 
0 0 0 
0 0 0 
0 0 0 
0 0 0 
0 0 0 
0 0 0 
0 0 0 
0 0 0 
0 0 0 
0 0 0 
0 0 0 
0 0 0 
0 0 0 
0 0 0 
0 0 0 
0 0 0 
0 0 0 
0 0 0 
0 0 0 
0 0 0 
0 0 0 
0 0 0 
0 0 0 
0 0 0 
0 0 0 
0 0 0 
0 0 0 
0 0 0 
0 0 0 
0 0 0 
0 0 0 
0 0 0 
0 0 0 
0 0 0 
0 0 0 
0 0 0 
0 0 0 
0 0 0 
0 0 0 
0 0 0 
0 0 0 
0 0 0 
0 0 0 
0 0 0 
0 0 0 
0 0 0 
0 0 0 
0 0 0 
0 0 0 
0 0 0 
0 0 0 
0 0 0 
0 0 0 
0 0 0 
0 0 0 
0 0 0 
0 0 0 
0 0 0 
0 0 0 
0 0 0 
0 0 0 
0 0 0 
0 0 0 
0 0 0 
0 0 0 
0 0 0 
0 0 0 
0 0 0 
0 0 0 
0 0 0 
0 0 0 
0 0 0 
0 0 0 
0 0 0 
0 0 0 
0 0 0 
0 0 0 
0 0 0 
0 0 0 
0 0 0 
0 0 0 
0 0 0 
0 0 0 
0 0 0 
0 0 0 
0 0 0 
0 0 0 
0 0 0 
0 0 0 
0 0 0 
0 0 0 
0 0 0 
0 0 0 
0 0 0 
0 0 0 
0 0 0 
0 0 0 
0 0 0 
0 0 0 
0 0 0 
0 0 0 
0 0 0 
0 0 0 
0 0 0 
0 0 0 
0 0 0 
0 0 0 
0 0 0 
0 0 0 
0 0 0 
0 0 0 
0 0 0 
0 0 0 
0 0 0 
0 0 0 
0 0 0 
0 0 0 
0 0 0 
0 0 0 
0 0 0 
0 0 0 
0 0 0 
0 0 0 
0 0 0 
0 0 0 
0 0 0 
0 0 0 
0 0 0 
0 0 0 
0 0 0 
0 0 0 
0 0 0 
0 0 0 
0 0 0 
0 0 0 
0 0 0 
0 0 0 
0 0 0 
0 0 0 
0 0 0 
0 0 0 
0 0 0 
0 0 0 
0 0 0 
0 0 0 
0 0 0 
0 0 0 
0 0 0 
0 0 0 
0 0 0 
0 0 0 
0 0 0 
0 0 0 
0 0 0 
0 0 0 
0 0 0 
0 0 0 
0 0 0 
0 0 0 
0 0 0 
0 0 0 
0 0 0 
0 0 0 
0 0 0 
0 0 0 
0 0 0 
0 0 0 
0 0 0 
0 0 0 
0 0 0 
0 0 0 
0 0 0 
0 0 0 
0 0 0 
0 0 0 
0 0 0 
0 0 0 
0 0 0 
0 0 0 
0 0 0 
0 0 0 
0 0 0 
0 0 0 
0 0 0 
0 0 0 
0 0 0 
0 0 0 
0 0 0 
0 0 0 
0 0 0 
0 0 0 
0 0 0 
0 0 0 
0 0 0 
0 0 0 
0 0 0 
0 0 0 
0 0 0 
0 0 0 
0 0 0 
0 0 0 
0 0 0 
0 0 0 
0 0 0 
0 0 0 
0 0 0 
0 0 0 
0 0 0 
0 0 0 
0 0 0 
0 0 0 
0 0 0 
0 0 0 
0 0 0 
0 0 0 
0 0 0 
0 0 0 
0 0 0 
0 0 0 
0 0 0 
0 0 0 
0 0 0 
0 0 0 
0 0 0 
0 0 0 
0 0 0 
0 0 0 
0 0 0 
0 0 0 
0 0 0 
0 0 0 
0 0 0 
0 0 0 
0 0 0 
0 0 0 
0 0 0 
0 0 0 
0 0 0 
0 0 0 
0 0 0 
0 0 0 
0 0 0 
0 0 0 
0 0 0 
0 0 0 
0 0 0 
0 0 0 
0 0 0 
0 0 0 
0 0 0 
0 0 0 
0 0 0 
0 0 0 
0 0 0 
0 0 0 
0 0 0 
0 0 0 
0 0 0 
0 0 0 
0 0 0 
0 0 0 
0 0 0 
0 0 0 
0 0 0 
0 0 0 
0 0 0 
0 0 0 
0 0 0 
0 0 0 
0 0 0 
0 0 0 
0 0 0 
0 0 0 
0 0 0 
0 0 0 
0 0 0 
0 0 0 
0 0 0 
0 0 0 
0 0 0 
0 0 0 
0 0 0 
0 0 0 
0 0 0 
0 0 0 
0 0 0 
0 0 0 
0 0 0 
0 0 0 
0 0 0 
0 0 0 
0 0 0 
0 0 0 
0 0 0 
0 0 0 
0 0 0 
0 0 0 
0 0 0 
0 0 0 
0 0 0 
0 0 0 
0 0 0 
0 0 0 
0 0 0 
0 0 0 
0 0 0 
0 0 0 
0 0 0 
0 0 0 
0 0 0 
0 0 0 
0 0 0 
0 0 0 
0 0 0 
0 0 0 
0 0 0 
0 0 0 
0 0 0 
0 0 0 
0 0 0 
0 0 0 
0 0 0 
0 0 0 
0 0 0 
0 0 0 
0 0 0 
0 0 0 
0 0 0 
0 0 0 
0 0 0 
0 0 0 
0 0 0 
0 0 0 
0 0 0 
0 0 0 
0 0 0 
0 0 0 
0 0 0 
0 0 0 
0 0 0 
0 0 0 
0 0 0 
0 0 0 
0 0 0 
0 0 0 
0 0 0 
0 0 0 
0 0 0 
0 0 0 
0 0 0 
0 0 0 
0 0 0 
0 0 0 
0 0 0 
0 0 0 
0 0 0 
0 0 0 
0 0 0 
0 0 0 
0 0 0 
0 0 0 
0 0 0 
0 0 0 
0 0 0 
0 0 0 
0 0 0 
0 0 0 
0 0 0 
0 0 0 
0 0 0 
0 0 0 
0 0 0 
0 0 0 
0 0 0 
0 0 0 
0 0 0 
0 0 0 
0 0 0 
0 0 0 
0 0 0 
0 0 0 
0 0 0 
0 0 0 
0 0 0 
0 0 0 
0 0 0 
0 0 0 
0 0 0 
0 0 0 
0 0 0 
0 0 0 
0 0 0 
0 0 0 
0 0 0 
0 0 0 
0 0 0 
0 0 0 
0 0 0 
0 0 0 
0 0 0 
0 0 0 
0 0 0 
0 0 0 
0 0 0 
0 0 0 
0 0 0 
0 0 0 
0 0 0 
0 0 0 
0 0 0 
0 0 0 
0 0 0 
0 0 0 
0 0 0 
0 0 0 
0 0 0 
0 0 0 
0 0 0 
0 0 0 
0 0 0 
0 0 0 
0 0 0 
0 0 0 
0 0 0 
0 0 0 
0 0 0 
0 0 0 
0 0 0 
0 0 0 
0 0 0 
0 0 0 
0 0 0 
0 0 0 
0 0 0 
0 0 0 
0 0 0 
0 0 0 
0 0 0 
0 0 0 
0 0 0 
0 0 0 
0 0 0 
0 0 0 
0 0 0 
0 0 0 
0 0 0 
0 0 0 
0 0 0 
0 0 0 
0 0 0 
0 0 0 
0 0 0 
0 0 0 
0 0 0 
0 0 0 
0 0 0 
0 0 0 
0 0 0 
0 0 0 
0 0 0 
0 0 0 
0 0 0 
0 0 0 
0 0 0 
0 0 0 
0 0 0 
0 0 0 
0 0 0 
0 0 0 
0 0 0 
0 0 0 
0 0 0 
0 0 0 
0 0 0 
0 0 0 
0 0 0 
0 0 0 
0 0 0 
0 0 0 
0 0 0 
0 0 0 
0 0 0 
0 0 0 
0 0 0 
0 0 0 
0 0 0 
0 0 0 
0 0 0 
0 0 0 
0 0 0 
0 0 0 
0 0 0 
0 0 0 
0 0 0 
0 0 0 
0 0 0 
0 0 0 
0 0 0 
0 0 0 
0 0 0 
0 0 0 
0 0 0 
0 0 0 
0 0 0 
0 0 0 
0 0 0 
0 0 0 
0 0 0 
0 0 0 
0 0 0 
0 0 0 
0 0 0 
0 0 0 
0 0 0 
0 0 0 
0 0 0 
0 0 0 
0 0 0 
0 0 0 
0 0 0 
0 0 0 
0 0 0 
0 0 0 
0 0 0 
0 0 0 
0 0 0 
0 0 0 
0 0 0 
0 0 0 
0 0 0 
0 0 0 
0 0 0 
0 0 0 
0 0 0 
0 0 0 
0 0 0 
0 0 0 
0 0 0 
0 0 0 
0 0 0 
0 0 0 
0 0 0 
0 0 0 
0 0 0 
0 0 0 
0 0 0 
0 0 0 
0 0 0 
0 0 0 
0 0 0 
0 0 0 
0 0 0 
0 0 0 
0 0 0 
0 0 0 
0 0 0 
0 0 0 
0 0 0 
0 0 0 
0 0 0 
0 0 0 
0 0 0 
0 0 0 
0 0 0 
0 0 0 
0 0 0 
0 0 0 
0 0 0 
0 0 0 
0 0 0 
0 0 0 
0 0 0 
0 0 0 
0 0 0 
0 0 0 
0 0 0 
0 0 0 
0 0 0 
0 0 0 
0 0 0 
0 0 0 
0 0 0 
0 0 0 
0 0 0 
0 0 0 
0 0 0 
0 0 0 
0 0 0 
0 0 0 
0 0 0 
0 0 0 
0 0 0 
0 0 0 
0 0 0 
0 0 0 
0 0 0 
0 0 0 
0 0 0 
0 0 0 
0 0 0 
0 0 0 
0 0 0 
0 0 0 
0 0 0 
0 0 0 
0 0 0 
0 0 0 
0 0 0 
0 0 0 
0 0 0 
0 0 0 
0 0 0 
0 0 0 
0 0 0 
0 0 0 
0 0 0 
0 0 0 
0 0 0 
0 0 0 
0 0 0 
0 0 0 
0 0 0 
0 0 0 
0 0 0 
0 0 0 
0 0 0 
0 0 0 
0 0 0 
0 0 0 
0 0 0 
0 0 0 
0 0 0 
0 0 0 
0 0 0 
0 0 0 
0 0 0 
0 0 0 
0 0 0 
0 0 0 
0 0 0 
0 0 0 
0 0 0 
0 0 0 
0 0 0 
0 0 0 
0 0 0 
0 0 0 
0 0 0 
0 0 0 
0 0 0 
0 0 0 
0 0 0 
0 0 0 
0 0 0 
0 0 0 
0 0 0 
0 0 0 
0 0 0 
0 0 0 
0 0 0 
0 0 0 
0 0 0 
0 0 0 
0 0 0 
0 0 0 
0 0 0 
0 0 0 
0 0 0 
0 0 0 
0 0 0 
0 0 0 
0 0 0 
0 0 0 
0 0 0 
0 0 0 
0 0 0 
0 0 0 
0 0 0 
0 0 0 
0 0 0 
0 0 0 
0 0 0 
0 0 0 
0 0 0 
0 0 0 
0 0 0 
0 0 0 
0 0 0 
0 0 0 
0 0 0 
0 0 0 
0 0 0 
0 0 0 
0 0 0 
0 0 0 
0 0 0 
0 0 0 
0 0 0 
0 0 0 
0 0 0 
0 0 0 
0 0 0 
0 0 0 
0 0 0 
0 0 0 
0 0 0 
0 0 0 
0 0 0 
0 0 0 
0 0 0 
0 0 0 
0 0 0 
0 0 0 
0 0 0 
0 0 0 
0 0 0 
0 0 0 
0 0 0 
0 0 0 
0 0 0 
0 0 0 
0 0 0 
0 0 0 
0 0 0 
0 0 0 
0 0 0 
0 0 0 
0 0 0 
0 0 0 
0 0 0 
0 0 0 
0 0 0 
0 0 0 
0 0 0 
0 0 0 
0 0 0 
0 0 0 
0 0 0 
0 0 0 
0 0 0 
0 0 0 
0 0 0 
0 0 0 
0 0 0 
0 0 0 
0 0 0 
0 0 0 
0 0 0 
0 0 0 
0 0 0 
0 0 0 
0 0 0 
0 0 0 
0 0 0 
0 0 0 
0 0 0 
0 0 0 
0 0 0 
0 0 0 
0 0 0 
0 0 0 
0 0 0 
0 0 0 
0 0 0 
0 0 0 
0 0 0 
0 0 0 
0 0 0 
0 0 0 
0 0 0 
0 0 0 
0 0 0 
0 0 0 
0 0 0 
0 0 0 
0 0 0 
0 0 0 
0 0 0 
0 0 0 
0 0 0 
0 0 0 
0 0 0 
0 0 0 
0 0 0 
0 0 0 
0 0 0 
0 0 0 
0 0 0 
0 0 0 
0 0 0 
0 0 0 
0 0 0 
0 0 0 
0 0 0 
0 0 0 
0 0 0 
0 0 0 
0 0 0 
0 0 0 
0 0 0 
0 0 0 
0 0 0 
0 0 0 
0 0 0 
0 0 0 
0 0 0 
0 0 0 
0 0 0 
0 0 0 
0 0 0 
0 0 0 
0 0 0 
0 0 0 
0 0 0 
0 0 0 
0 0 0 
0 0 0 
0 0 0 
0 0 0 
0 0 0 
0 0 0 
0 0 0 
0 0 0 
0 0 0 
0 0 0 
0 0 0 
0 0 0 
0 0 0 
0 0 0 
0 0 0 
0 0 0 
0 0 0 
0 0 0 
0 0 0 
0 0 0 
0 0 0 
0 0 0 
0 0 0 
0 0 0 
0 0 0 
0 0 0 
0 0 0 
0 0 0 
0 0 0 
0 0 0 
0 0 0 
0 0 0 
0 0 0 
0 0 0 
0 0 0 
0 0 0 
0 0 0 
0 0 0 
0 0 0 
0 0 0 
0 0 0 
0 0 0 
0 0 0 
0 0 0 
0 0 0 
0 0 0 
0 0 0 
0 0 0 
0 0 0 
0 0 0 
0 0 0 
0 0 0 
0 0 0 
0 0 0 
0 0 0 
0 0 0 
0 0 0 
0 0 0 
0 0 0 
0 0 0 
0 0 0 
0 0 0 
0 0 0 
0 0 0 
0 0 0 
0 0 0 
0 0 0 
0 0 0 
0 0 0 
0 0 0 
0 0 0 
0 0 0 
0 0 0 
0 0 0 
0 0 0 
0 0 0 
0 0 0 
0 0 0 
0 0 0 
0 0 0 
0 0 0 
0 0 0 
0 0 0 
0 0 0 
0 0 0 
0 0 0 
0 0 0 
0 0 0 
0 0 0 
0 0 0 
0 0 0 
0 0 0 
0 0 0 
0 0 0 
0 0 0 
0 0 0 
0 0 0 
0 0 0 
0 0 0 
0 0 0 
0 0 0 
0 0 0 
0 0 0 
0 0 0 
0 0 0 
0 0 0 
0 0 0 
0 0 0 
0 0 0 
0 0 0 
0 0 0 
0 0 0 
0 0 0 
0 0 0 
0 0 0 
0 0 0 
0 0 0 
0 0 0 
0 0 0 
0 0 0 
0 0 0 
0 0 0 
0 0 0 
0 0 0 
0 0 0 
0 0 0 
0 0 0 
0 0 0 
0 0 0 
0 0 0 
0 0 0 
0 0 0 
0 0 0 
0 0 0 
0 0 0 
0 0 0 
0 0 0 
0 0 0 
0 0 0 
0 0 0 
0 0 0 
0 0 0 
0 0 0 
0 0 0 
0 0 0 
0 0 0 
0 0 0 
0 0 0 
0 0 0 
0 0 0 
0 0 0 
0 0 0 
0 0 0 
0 0 0 
0 0 0 
0 0 0 
0 0 0 
0 0 0 
0 0 0 
0 0 0 
0 0 0 
0 0 0 
0 0 0 
0 0 0 
0 0 0 
0 0 0 
0 0 0 
0 0 0 
0 0 0 
0 0 0 
0 0 0 
0 0 0 
0 0 0 
0 0 0 
0 0 0 
0 0 0 
0 0 0 
0 0 0 
0 0 0 
0 0 0 
0 0 0 
0 0 0 
0 0 0 
0 0 0 
0 0 0 
0 0 0 
0 0 0 
0 0 0 
0 0 0 
0 0 0 
0 0 0 
0 0 0 
0 0 0 
0 0 0 
0 0 0 
0 0 0 
0 0 0 
0 0 0 
0 0 0 
0 0 0 
0 0 0 
0 0 0 
0 0 0 
0 0 0 
0 0 0 
0 0 0 
0 0 0 
0 0 0 
0 0 0 
0 0 0 
0 0 0 
0 0 0 
0 0 0 
0 0 0 
0 0 0 
0 0 0 
0 0 0 
0 0 0 
0 0 0 
0 0 0 
0 0 0 
0 0 0 
0 0 0 
0 0 0 
0 0 0 
0 0 0 
0 0 0 
0 0 0 
0 0 0 
0 0 0 
0 0 0 
0 0 0 
0 0 0 
0 0 0 
0 0 0 
0 0 0 
0 0 0 
0 0 0 
0 0 0 
0 0 0 
0 0 0 
0 0 0 
0 0 0 
0 0 0 
0 0 0 
0 0 0 
0 0 0 
0 0 0 
0 0 0 
0 0 0 
0 0 0 
0 0 0 
0 0 0 
0 0 0 
0 0 0 
0 0 0 
0 0 0 
0 0 0 
0 0 0 
0 0 0 
0 0 0 
0 0 0 
0 0 0 
0 0 0 
0 0 0 
0 0 0 
0 0 0 
0 0 0 
0 0 0 
0 0 0 
0 0 0 
0 0 0 
0 0 0 
0 0 0 
0 0 0 
0 0 0 
0 0 0 
0 0 0 
0 0 0 
0 0 0 
0 0 0 
0 0 0 
0 0 0 
0 0 0 
0 0 0 
0 0 0 
0 0 0 
0 0 0 
0 0 0 
0 0 0 
0 0 0 
0 0 0 
0 0 0 
0 0 0 
0 0 0 
0 0 0 
0 0 0 
0 0 0 
0 0 0 
0 0 0 
0 0 0 
0 0 0 
0 0 0 
0 0 0 
0 0 0 
0 0 0 
0 0 0 
0 0 0 
0 0 0 
0 0 0 
0 0 0 
0 0 0 
0 0 0 
0 0 0 
0 0 0 
0 0 0 
0 0 0 
0 0 0 
0 0 0 
0 0 0 
0 0 0 
0 0 0 
0 0 0 
0 0 0 
0 0 0 
0 0 0 
0 0 0 
0 0 0 
0 0 0 
0 0 0 
0 0 0 
0 0 0 
0 0 0 
0 0 0 
0 0 0 
0 0 0 
0 0 0 
0 0 0 
0 0 0 
0 0 0 
0 0 0 
0 0 0 
0 0 0 
0 0 0 
0 0 0 
0 0 0 
0 0 0 
0 0 0 
0 0 0 
0 0 0 
0 0 0 
0 0 0 
0 0 0 
0 0 0 
0 0 0 
0 0 0 
0 0 0 
0 0 0 
0 0 0 
0 0 0 
0 0 0 
0 0 0 
0 0 0 
0 0 0 
0 0 0 
0 0 0 
0 0 0 
0 0 0 
0 0 0 
0 0 0 
0 0 0 
0 0 0 
0 0 0 
0 0 0 
0 0 0 
0 0 0 
0 0 0 
0 0 0 
0 0 0 
0 0 0 
0 0 0 
0 0 0 
0 0 0 
0 0 0 
0 0 0 
0 0 0 
0 0 0 
0 0 0 
0 0 0 
0 0 0 
0 0 0 
0 0 0 
0 0 0 
0 0 0 
0 0 0 
0 0 0 
0 0 0 
0 0 0 
0 0 0 
0 0 0 
0 0 0 
0 0 0 
0 0 0 
0 0 0 
0 0 0 
0 0 0 
0 0 0 
0 0 0 
0 0 0 
0 0 0 
0 0 0 
0 0 0 
0 0 0 
0 0 0 
0 0 0 
0 0 0 
0 0 0 
0 0 0 
0 0 0 
0 0 0 
0 0 0 
0 0 0 
0 0 0 
0 0 0 
0 0 0 
0 0 0 
0 0 0 
0 0 0 
0 0 0 
0 0 0 
0 0 0 
0 0 0 
0 0 0 
0 0 0 
0 0 0 
0 0 0 
0 0 0 
0 0 0 
0 0 0 
0 0 0 
0 0 0 
0 0 0 
0 0 0 
0 0 0 
0 0 0 
0 0 0 
0 0 0 
0 0 0 
0 0 0 
0 0 0 
0 0 0 
0 0 0 
0 0 0 
0 0 0 
0 0 0 
0 0 0 
0 0 0 
0 0 0 
0 0 0 
0 0 0 
0 0 0 
0 0 0 
0 0 0 
0 0 0 
0 0 0 
0 0 0 
0 0 0 
0 0 0 
0 0 0 
0 0 0 
0 0 0 
0 0 0 
0 0 0 
0 0 0 
0 0 0 
0 0 0 
0 0 0 
0 0 0 
0 0 0 
0 0 0 
0 0 0 
0 0 0 
0 0 0 
0 0 0 
0 0 0 
0 0 0 
0 0 0 
0 0 0 
0 0 0 
0 0 0 
0 0 0 
0 0 0 
0 0 0 
0 0 0 
0 0 0 
0 0 0 
0 0 0 
0 0 0 
0 0 0 
0 0 0 
0 0 0 
0 0 0 
0 0 0 
0 0 0 
0 0 0 
0 0 0 
0 0 0 
0 0 0 
0 0 0 
0 0 0 
0 0 0 
0 0 0 
0 0 0 
0 0 0 
0 0 0 
0 0 0 
0 0 0 
0 0 0 
0 0 0 
0 0 0 
0 0 0 
0 0 0 
0 0 0 
0 0 0 
0 0 0 
0 0 0 
0 0 0 
0 0 0 
0 0 0 
0 0 0 
0 0 0 
0 0 0 
0 0 0 
0 0 0 
0 0 0 
0 0 0 
0 0 0 
0 0 0 
0 0 0 
0 0 0 
0 0 0 
0 0 0 
0 0 0 
0 0 0 
0 0 0 
0 0 0 
0 0 0 
0 0 0 
0 0 0 
0 0 0 
0 0 0 
0 0 0 
0 0 0 
0 0 0 
0 0 0 
0 0 0 
0 0 0 
0 0 0 
0 0 0 
0 0 0 
0 0 0 
0 0 0 
0 0 0 
0 0 0 
0 0 0 
0 0 0 
0 0 0 
0 0 0 
0 0 0 
0 0 0 
0 0 0 
0 0 0 
0 0 0 
0 0 0 
0 0 0 
0 0 0 
0 0 0 
0 0 0 
0 0 0 
0 0 0 
0 0 0 
0 0 0 
0 0 0 
0 0 0 
0 0 0 
0 0 0 
0 0 0 
0 0 0 
0 0 0 
0 0 0 
0 0 0 
0 0 0 
0 0 0 
0 0 0 
0 0 0 
0 0 0 
0 0 0 
0 0 0 
0 0 0 
0 0 0 
0 0 0 
0 0 0 
0 0 0 
0 0 0 
0 0 0 
0 0 0 
0 0 0 
0 0 0 
0 0 0 
0 0 0 
0 0 0 
0 0 0 
0 0 0 
0 0 0 
0 0 0 
0 0 0 
0 0 0 
0 0 0 
0 0 0 
0 0 0 
0 0 0 
0 0 0 
0 0 0 
0 0 0 
0 0 0 
0 0 0 
0 0 0 
0 0 0 
0 0 0 
0 0 0 
0 0 0 
0 0 0 
0 0 0 
0 0 0 
0 0 0 
0 0 0 
0 0 0 
0 0 0 
0 0 0 
0 0 0 
0 0 0 
0 0 0 
0 0 0 
0 0 0 
0 0 0 
0 0 0 
0 0 0 
0 0 0 
0 0 0 
0 0 0 
0 0 0 
0 0 0 
0 0 0 
0 0 0 
0 0 0 
0 0 0 
0 0 0 
0 0 0 
0 0 0 
0 0 0 
0 0 0 
0 0 0 
0 0 0 
0 0 0 
0 0 0 
0 0 0 
0 0 0 
0 0 0 
0 0 0 
0 0 0 
0 0 0 
0 0 0 
0 0 0 
0 0 0 
0 0 0 
0 0 0 
0 0 0 
0 0 0 
0 0 0 
0 0 0 
0 0 0 
0 0 0 
0 0 0 
0 0 0 
0 0 0 
0 0 0 
0 0 0 
0 0 0 
0 0 0 
0 0 0 
0 0 0 
0 0 0 
0 0 0 
0 0 0 
0 0 0 
0 0 0 
0 0 0 
0 0 0 
0 0 0 
0 0 0 
0 0 0 
0 0 0 
0 0 0 
0 0 0 
0 0 0 
0 0 0 
0 0 0 
0 0 0 
0 0 0 
0 0 0 
0 0 0 
0 0 0 
0 0 0 
0 0 0 
0 0 0 
0 0 0 
0 0 0 
0 0 0 
0 0 0 
0 0 0 
0 0 0 
0 0 0 
0 0 0 
0 0 0 
0 0 0 
0 0 0 
0 0 0 
0 0 0 
0 0 0 
0 0 0 
0 0 0 
0 0 0 
0 0 0 
0 0 0 
0 0 0 
0 0 0 
0 0 0 
0 0 0 
0 0 0 
0 0 0 
0 0 0 
0 0 0 
0 0 0 
0 0 0 
0 0 0 
0 0 0 
0 0 0 
0 0 0 
0 0 0 
0 0 0 
0 0 0 
0 0 0 
0 0 0 
0 0 0 
0 0 0 
0 0 0 
0 0 0 
0 0 0 
0 0 0 
0 0 0 
0 0 0 
0 0 0 
0 0 0 
0 0 0 
0 0 0 
0 0 0 
0 0 0 
0 0 0 
0 0 0 
0 0 0 
0 0 0 
0 0 0 
0 0 0 
0 0 0 
0 0 0 
0 0 0 
0 0 0 
0 0 0 
0 0 0 
0 0 0 
0 0 0 
0 0 0 
0 0 0 
0 0 0 
0 0 0 
0 0 0 
0 0 0 
0 0 0 
0 0 0 
0 0 0 
0 0 0 
0 0 0 
0 0 0 
0 0 0 
0 0 0 
0 0 0 
0 0 0 
0 0 0 
0 0 0 
0 0 0 
0 0 0 
0 0 0 
0 0 0 
0 0 0 
0 0 0 
0 0 0 
0 0 0 
0 0 0 
0 0 0 
0 0 0 
0 0 0 
0 0 0 
0 0 0 
0 0 0 
0 0 0 
0 0 0 
0 0 0 
0 0 0 
0 0 0 
0 0 0 
0 0 0 
0 0 0 
0 0 0 
0 0 0 
0 0 0 
0 0 0 
0 0 0 
0 0 0 
0 0 0 
0 0 0 
0 0 0 
0 0 0 
0 0 0 
0 0 0 
0 0 0 
0 0 0 
0 0 0 
0 0 0 
0 0 0 
0 0 0 
0 0 0 
0 0 0 
0 0 0 
0 0 0 
0 0 0 
0 0 0 
0 0 0 
0 0 0 
0 0 0 
0 0 0 
0 0 0 
0 0 0 
0 0 0 
0 0 0 
0 0 0 
0 0 0 
0 0 0 
0 0 0 
0 0 0 
0 0 0 
0 0 0 
0 0 0 
0 0 0 
0 0 0 
0 0 0 
0 0 0 
0 0 0 
0 0 0 
0 0 0 
0 0 0 
0 0 0 
0 0 0 
0 0 0 
0 0 0 
0 0 0 
0 0 0 
0 0 0 
0 0 0 
0 0 0 
0 0 0 
0 0 0 
0 0 0 
0 0 0 
0 0 0 
0 0 0 
0 0 0 
0 0 0 
0 0 0 
0 0 0 
0 0 0 
0 0 0 
0 0 0 
0 0 0 
0 0 0 
0 0 0 
0 0 0 
0 0 0 
0 0 0 
0 0 0 
0 0 0 
0 0 0 
0 0 0 
0 0 0 
0 0 0 
0 0 0 
0 0 0 
0 0 0 
0 0 0 
0 0 0 
0 0 0 
0 0 0 
0 0 0 
0 0 0 
0 0 0 
0 0 0 
0 0 0 
0 0 0 
0 0 0 
0 0 0 
0 0 0 
0 0 0 
0 0 0 
0 0 0 
0 0 0 
0 0 0 
0 0 0 
0 0 0 
0 0 0 
0 0 0 
0 0 0 
0 0 0 
0 0 0 
0 0 0 
0 0 0 
0 0 0 
0 0 0 
0 0 0 
0 0 0 
0 0 0 
0 0 0 
0 0 0 
0 0 0 
0 0 0 
0 0 0 
0 0 0 
0 0 0 
0 0 0 
0 0 0 
0 0 0 
0 0 0 
0 0 0 
0 0 0 
0 0 0 
0 0 0 
0 0 0 
0 0 0 
0 0 0 
0 0 0 
0 0 0 
0 0 0 
0 0 0 
0 0 0 
0 0 0 
0 0 0 
0 0 0 
0 0 0 
0 0 0 
0 0 0 
0 0 0 
0 0 0 
0 0 0 
0 0 0 
0 0 0 
0 0 0 
0 0 0 
0 0 0 
0 0 0 
0 0 0 
0 0 0 
0 0 0 
0 0 0 
0 0 0 
0 0 0 
0 0 0 
0 0 0 
0 0 0 
0 0 0 
0 0 0 
0 0 0 
0 0 0 
0 0 0 
0 0 0 
0 0 0 
0 0 0 
0 0 0 
0 0 0 
0 0 0 
0 0 0 
0 0 0 
0 0 0 
0 0 0 
0 0 0 
0 0 0 
0 0 0 
0 0 0 
0 0 0 
0 0 0 
0 0 0 
0 0 0 
0 0 0 
0 0 0 
0 0 0 
0 0 0 
0 0 0 
0 0 0 
0 0 0 
0 0 0 
0 0 0 
0 0 0 
0 0 0 
0 0 0 
0 0 0 
0 0 0 
0 0 0 
0 0 0 
0 0 0 
0 0 0 
0 0 0 
0 0 0 
0 0 0 
0 0 0 
0 0 0 
0 0 0 
0 0 0 
0 0 0 
0 0 0 
0 0 0 
0 0 0 
0 0 0 
0 0 0 
0 0 0 
0 0 0 
0 0 0 
0 0 0 
0 0 0 
0 0 0 
0 0 0 
0 0 0 
0 0 0 
0 0 0 
0 0 0 
0 0 0 
0 0 0 
0 0 0 
0 0 0 
0 0 0 
0 0 0 
0 0 0 
0 0 0 
0 0 0 
0 0 0 
0 0 0 
0 0 0 
0 0 0 
0 0 0 
0 0 0 
0 0 0 
0 0 0 
0 0 0 
0 0 0 
0 0 0 
0 0 0 
0 0 0 
0 0 0 
0 0 0 
0 0 0 
0 0 0 
0 0 0 
0 0 0 
0 0 0 
0 0 0 
0 0 0 
0 0 0 
0 0 0 
0 0 0 
0 0 0 
0 0 0 
0 0 0 
0 0 0 
0 0 0 
0 0 0 
0 0 0 
0 0 0 
0 0 0 
0 0 0 
0 0 0 
0 0 0 
0 0 0 
0 0 0 
0 0 0 
0 0 0 
0 0 0 
0 0 0 
0 0 0 
0 0 0 
0 0 0 
0 0 0 
0 0 0 
0 0 0 
0 0 0 
0 0 0 
0 0 0 
0 0 0 
0 0 0 
0 0 0 
0 0 0 
0 0 0 
0 0 0 
0 0 0 
0 0 0 
0 0 0 
0 0 0 
0 0 0 
0 0 0 
0 0 0 
0 0 0 
0 0 0 
0 0 0 
0 0 0 
0 0 0 
0 0 0 
0 0 0 
0 0 0 
0 0 0 
0 0 0 
0 0 0 
0 0 0 
0 0 0 
0 0 0 
0 0 0 
0 0 0 
0 0 0 
0 0 0 
0 0 0 
0 0 0 
0 0 0 
0 0 0 
0 0 0 
0 0 0 
0 0 0 
0 0 0 
0 0 0 
0 0 0 
0 0 0 
0 0 0 
0 0 0 
0 0 0 
0 0 0 
0 0 0 
0 0 0 
0 0 0 
0 0 0 
0 0 0 
0 0 0 
0 0 0 
0 0 0 
0 0 0 
0 0 0 
0 0 0 
0 0 0 
0 0 0 
0 0 0 
0 0 0 
0 0 0 
0 0 0 
0 0 0 
0 0 0 
0 0 0 
0 0 0 
0 0 0 
0 0 0 
0 0 0 
0 0 0 
0 0 0 
0 0 0 
0 0 0 
0 0 0 
0 0 0 
0 0 0 
0 0 0 
0 0 0 
0 0 0 
0 0 0 
0 0 0 
0 0 0 
0 0 0 
0 0 0 
0 0 0 
0 0 0 
0 0 0 
0 0 0 
0 0 0 
0 0 0 
0 0 0 
0 0 0 
0 0 0 
0 0 0 
0 0 0 
0 0 0 
0 0 0 
0 0 0 
0 0 0 
0 0 0 
0 0 0 
0 0 0 
0 0 0 
0 0 0 
0 0 0 
0 0 0 
0 0 0 
0 0 0 
0 0 0 
0 0 0 
0 0 0 
0 0 0 
0 0 0 
0 0 0 
0 0 0 
0 0 0 
0 0 0 
0 0 0 
0 0 0 
0 0 0 
0 0 0 
0 0 0 
0 0 0 
0 0 0 
0 0 0 
0 0 0 
0 0 0 
0 0 0 
0 0 0 
0 0 0 
0 0 0 
0 0 0 
0 0 0 
0 0 0 
0 0 0 
0 0 0 
0 0 0 
0 0 0 
0 0 0 
0 0 0 
0 0 0 
0 0 0 
0 0 0 
0 0 0 
0 0 0 
0 0 0 
0 0 0 
0 0 0 
0 0 0 
0 0 0 
0 0 0 
0 0 0 
0 0 0 
0 0 0 
0 0 0 
0 0 0 
0 0 0 
0 0 0 
0 0 0 
0 0 0 
0 0 0 
0 0 0 
0 0 0 
0 0 0 
0 0 0 
0 0 0 
0 0 0 
0 0 0 
0 0 0 
0 0 0 
0 0 0 
0 0 0 
0 0 0 
0 0 0 
0 0 0 
0 0 0 
0 0 0 
0 0 0 
0 0 0 
0 0 0 
0 0 0 
0 0 0 
0 0 0 
0 0 0 
0 0 0 
0 0 0 
0 0 0 
0 0 0 
0 0 0 
0 0 0 
0 0 0 
0 0 0 
0 0 0 
0 0 0 
0 0 0 
0 0 0 
0 0 0 
0 0 0 
0 0 0 
0 0 0 
0 0 0 
0 0 0 
0 0 0 
0 0 0 
0 0 0 
0 0 0 
0 0 0 
0 0 0 
0 0 0 
0 0 0 
0 0 0 
0 0 0 
0 0 0 
0 0 0 
0 0 0 
0 0 0 
0 0 0 
0 0 0 
0 0 0 
0 0 0 
0 0 0 
0 0 0 
0 0 0 
0 0 0 
0 0 0 
0 0 0 
0 0 0 
0 0 0 
0 0 0 
0 0 0 
0 0 0 
0 0 0 
0 0 0 
0 0 0 
0 0 0 
0 0 0 
0 0 0 
0 0 0 
0 0 0 
0 0 0 
0 0 0 
0 0 0 
0 0 0 
0 0 0 
0 0 0 
0 0 0 
0 0 0 
0 0 0 
0 0 0 
0 0 0 
0 0 0 
0 0 0 
0 0 0 
0 0 0 
0 0 0 
0 0 0 
0 0 0 
0 0 0 
0 0 0 
0 0 0 
0 0 0 
0 0 0 
0 0 0 
0 0 0 
0 0 0 
0 0 0 
0 0 0 
0 0 0 
0 0 0 
0 0 0 
0 0 0 
0 0 0 
0 0 0 
0 0 0 
0 0 0 
0 0 0 
0 0 0 
0 0 0 
0 0 0 
0 0 0 
0 0 0 
0 0 0 
0 0 0 
0 0 0 
0 0 0 
0 0 0 
0 0 0 
0 0 0 
0 0 0 
0 0 0 
0 0 0 
0 0 0 
0 0 0 
0 0 0 
0 0 0 
0 0 0 
0 0 0 
0 0 0 
0 0 0 
0 0 0 
0 0 0 
0 0 0 
0 0 0 
0 0 0 
0 0 0 
0 0 0 
0 0 0 
0 0 0 
0 0 0 
0 0 0 
0 0 0 
0 0 0 
0 0 0 
0 0 0 
0 0 0 
0 0 0 
0 0 0 
0 0 0 
0 0 0 
0 0 0 
0 0 0 
0 0 0 
0 0 0 
0 0 0 
0 0 0 
0 0 0 
0 0 0 
0 0 0 
0 0 0 
0 0 0 
0 0 0 
0 0 0 
0 0 0 
0 0 0 
0 0 0 
0 0 0 
0 0 0 
0 0 0 
0 0 0 
0 0 0 
0 0 0 
0 0 0 
0 0 0 
0 0 0 
0 0 0 
0 0 0 
0 0 0 
0 0 0 
0 0 0 
0 0 0 
0 0 0 
0 0 0 
0 0 0 
0 0 0 
0 0 0 
0 0 0 
0 0 0 
0 0 0 
0 0 0 
0 0 0 
0 0 0 
0 0 0 
0 0 0 
0 0 0 
0 0 0 
0 0 0 
0 0 0 
0 0 0 
0 0 0 
0 0 0 
0 0 0 
0 0 0 
0 0 0 
0 0 0 
0 0 0 
0 0 0 
0 0 0 
0 0 0 
0 0 0 
0 0 0 
0 0 0 
0 0 0 
0 0 0 
0 0 0 
0 0 0 
0 0 0 
0 0 0 
0 0 0 
0 0 0 
0 0 0 
0 0 0 
0 0 0 
0 0 0 
0 0 0 
0 0 0 
0 0 0 
0 0 0 
0 0 0 
0 0 0 
0 0 0 
0 0 0 
0 0 0 
0 0 0 
0 0 0 
0 0 0 
0 0 0 
0 0 0 
0 0 0 
0 0 0 
0 0 0 
0 0 0 
0 0 0 
0 0 0 
0 0 0 
0 0 0 
0 0 0 
0 0 0 
0 0 0 
0 0 0 
0 0 0 
0 0 0 
0 0 0 
0 0 0 
0 0 0 
0 0 0 
0 0 0 
0 0 0 
0 0 0 
0 0 0 
0 0 0 
0 0 0 
0 0 0 
0 0 0 
0 0 0 
0 0 0 
0 0 0 
0 0 0 
0 0 0 
0 0 0 
0 0 0 
0 0 0 
0 0 0 
0 0 0 
0 0 0 
0 0 0 
0 0 0 
0 0 0 
0 0 0 
0 0 0 
0 0 0 
0 0 0 
0 0 0 
0 0 0 
0 0 0 
0 0 0 
0 0 0 
0 0 0 
0 0 0 
0 0 0 
0 0 0 
0 0 0 
0 0 0 
0 0 0 
0 0 0 
0 0 0 
0 0 0 
0 0 0 
0 0 0 
0 0 0 
0 0 0 
0 0 0 
0 0 0 
0 0 0 
0 0 0 
0 0 0 
0 0 0 
0 0 0 
0 0 0 
0 0 0 
0 0 0 
0 0 0 
0 0 0 
0 0 0 
0 0 0 
0 0 0 
0 0 0 
0 0 0 
0 0 0 
0 0 0 
0 0 0 
0 0 0 
0 0 0 
0 0 0 
0 0 0 
0 0 0 
0 0 0 
0 0 0 
0 0 0 
0 0 0 
0 0 0 
0 0 0 
0 0 0 
0 0 0 
0 0 0 
0 0 0 
0 0 0 
0 0 0 
0 0 0 
0 0 0 
0 0 0 
0 0 0 
0 0 0 
0 0 0 
0 0 0 
0 0 0 
0 0 0 
0 0 0 
0 0 0 
0 0 0 
0 0 0 
0 0 0 
0 0 0 
0 0 0 
0 0 0 
0 0 0 
0 0 0 
0 0 0 
0 0 0 
0 0 0 
0 0 0 
0 0 0 
0 0 0 
0 0 0 
0 0 0 
0 0 0 
0 0 0 
0 0 0 
0 0 0 
0 0 0 
0 0 0 
0 0 0 
0 0 0 
0 0 0 
0 0 0 
0 0 0 
0 0 0 
0 0 0 
0 0 0 
0 0 0 
0 0 0 
0 0 0 
0 0 0 
0 0 0 
0 0 0 
0 0 0 
0 0 0 
0 0 0 
0 0 0 
0 0 0 
0 0 0 
0 0 0 
0 0 0 
0 0 0 
0 0 0 
0 0 0 
0 0 0 
0 0 0 
0 0 0 
0 0 0 
0 0 0 
0 0 0 
0 0 0 
0 0 0 
0 0 0 
0 0 0 
0 0 0 
0 0 0 
0 0 0 
0 0 0 
0 0 0 
0 0 0 
0 0 0 
0 0 0 
0 0 0 
0 0 0 
0 0 0 
0 0 0 
0 0 0 
0 0 0 
0 0 0 
0 0 0 
0 0 0 
0 0 0 
0 0 0 
0 0 0 
0 0 0 
0 0 0 
0 0 0 
0 0 0 
0 0 0 
0 0 0 
0 0 0 
0 0 0 
0 0 0 
0 0 0 
0 0 0 
0 0 0 
0 0 0 
0 0 0 
0 0 0 
0 0 0 
0 0 0 
0 0 0 
0 0 0 
0 0 0 
0 0 0 
0 0 0 
0 0 0 
0 0 0 
0 0 0 
0 0 0 
0 0 0 
0 0 0 
0 0 0 
0 0 0 
0 0 0 
0 0 0 
0 0 0 
0 0 0 
0 0 0 
0 0 0 
0 0 0 
0 0 0 
0 0 0 
0 0 0 
0 0 0 
0 0 0 
0 0 0 
0 0 0 
0 0 0 
0 0 0 
0 0 0 
0 0 0 
0 0 0 
0 0 0 
0 0 0 
0 0 0 
0 0 0 
0 0 0 
0 0 0 
0 0 0 
0 0 0 
0 0 0 
0 0 0 
0 0 0 
0 0 0 
0 0 0 
0 0 0 
0 0 0 
0 0 0 
0 0 0 
0 0 0 
0 0 0 
0 0 0 
0 0 0 
0 0 0 
0 0 0 
0 0 0 
0 0 0 
0 0 0 
0 0 0 
0 0 0 
0 0 0 
0 0 0 
0 0 0 
0 0 0 
0 0 0 
0 0 0 
0 0 0 
0 0 0 
0 0 0 
0 0 0 
0 0 0 
0 0 0 
0 0 0 
0 0 0 
0 0 0 
0 0 0 
0 0 0 
0 0 0 
0 0 0 
0 0 0 
0 0 0 
0 0 0 
0 0 0 
0 0 0 
0 0 0 
0 0 0 
0 0 0 
0 0 0 
0 0 0 
0 0 0 
0 0 0 
0 0 0 
0 0 0 
0 0 0 
0 0 0 
0 0 0 
0 0 0 
0 0 0 
0 0 0 
0 0 0 
0 0 0 
0 0 0 
0 0 0 
0 0 0 
0 0 0 
0 0 0 
0 0 0 
0 0 0 
0 0 0 
0 0 0 
0 0 0 
0 0 0 
0 0 0 
0 0 0 
0 0 0 
0 0 0 
0 0 0 
0 0 0 
0 0 0 
0 0 0 
0 0 0 
0 0 0 
0 0 0 
0 0 0 
0 0 0 
0 0 0 
0 0 0 
0 0 0 
0 0 0 
0 0 0 
0 0 0 
0 0 0 
0 0 0 
0 0 0 
0 0 0 
0 0 0 
0 0 0 
0 0 0 
0 0 0 
0 0 0 
0 0 0 
0 0 0 
0 0 0 
0 0 0 
0 0 0 
0 0 0 
0 0 0 
0 0 0 
0 0 0 
0 0 0 
0 0 0 
0 0 0 
0 0 0 
0 0 0 
0 0 0 
0 0 0 
0 0 0 
0 0 0 
0 0 0 
0 0 0 
0 0 0 
0 0 0 
0 0 0 
0 0 0 
0 0 0 
0 0 0 
0 0 0 
0 0 0 
0 0 0 
0 0 0 
0 0 0 
0 0 0 
0 0 0 
0 0 0 
0 0 0 
0 0 0 
0 0 0 
0 0 0 
0 0 0 
0 0 0 
0 0 0 
0 0 0 
0 0 0 
0 0 0 
0 0 0 
0 0 0 
0 0 0 
0 0 0 
0 0 0 
0 0 0 
0 0 0 
0 0 0 
0 0 0 
0 0 0 
0 0 0 
0 0 0 
0 0 0 
0 0 0 
0 0 0 
0 0 0 
0 0 0 
0 0 0 
0 0 0 
0 0 0 
0 0 0 
0 0 0 
0 0 0 
0 0 0 
0 0 0 
0 0 0 
0 0 0 
0 0 0 
0 0 0 
0 0 0 
0 0 0 
0 0 0 
0 0 0 
0 0 0 
0 0 0 
0 0 0 
0 0 0 
0 0 0 
0 0 0 
0 0 0 
0 0 0 
0 0 0 
0 0 0 
0 0 0 
0 0 0 
0 0 0 
0 0 0 
0 0 0 
0 0 0 
0 0 0 
0 0 0 
0 0 0 
0 0 0 
0 0 0 
0 0 0 
0 0 0 
0 0 0 
0 0 0 
0 0 0 
0 0 0 
0 0 0 
0 0 0 
0 0 0 
0 0 0 
0 0 0 
0 0 0 
0 0 0 
0 0 0 
0 0 0 
0 0 0 
0 0 0 
0 0 0 
0 0 0 
0 0 0 
0 0 0 
0 0 0 
0 0 0 
0 0 0 
0 0 0 
0 0 0 
0 0 0 
0 0 0 
0 0 0 
0 0 0 
0 0 0 
0 0 0 
0 0 0 
0 0 0 
0 0 0 
0 0 0 
0 0 0 
0 0 0 
0 0 0 
0 0 0 
0 0 0 
0 0 0 
0 0 0 
0 0 0 
0 0 0 
0 0 0 
0 0 0 
0 0 0 
0 0 0 
0 0 0 
0 0 0 
0 0 0 
0 0 0 
0 0 0 
0 0 0 
0 0 0 
0 0 0 
0 0 0 
0 0 0 
0 0 0 
0 0 0 
0 0 0 
0 0 0 
0 0 0 
0 0 0 
0 0 0 
0 0 0 
0 0 0 
0 0 0 
0 0 0 
0 0 0 
0 0 0 
0 0 0 
0 0 0 
0 0 0 
0 0 0 
0 0 0 
0 0 0 
0 0 0 
0 0 0 
0 0 0 
0 0 0 
0 0 0 
0 0 0 
0 0 0 
0 0 0 
0 0 0 
0 0 0 
0 0 0 
0 0 0 
0 0 0 
0 0 0 
0 0 0 
0 0 0 
0 0 0 
0 0 0 
0 0 0 
0 0 0 
0 0 0 
0 0 0 
0 0 0 
0 0 0 
0 0 0 
0 0 0 
0 0 0 
0 0 0 
0 0 0 
0 0 0 
0 0 0 
0 0 0 
0 0 0 
0 0 0 
0 0 0 
0 0 0 
0 0 0 
0 0 0 
0 0 0 
0 0 0 
0 0 0 
0 0 0 
0 0 0 
0 0 0 
0 0 0 
0 0 0 
0 0 0 
0 0 0 
0 0 0 
0 0 0 
0 0 0 
0 0 0 
0 0 0 
0 0 0 
0 0 0 
0 0 0 
0 0 0 
0 0 0 
0 0 0 
0 0 0 
0 0 0 
0 0 0 
0 0 0 
0 0 0 
0 0 0 
0 0 0 
0 0 0 
0 0 0 
0 0 0 
0 0 0 
0 0 0 
0 0 0 
0 0 0 
0 0 0 
0 0 0 
0 0 0 
0 0 0 
0 0 0 
0 0 0 
0 0 0 
0 0 0 
0 0 0 
0 0 0 
0 0 0 
0 0 0 
0 0 0 
0 0 0 
0 0 0 
0 0 0 
0 0 0 
0 0 0 
0 0 0 
0 0 0 
0 0 0 
0 0 0 
0 0 0 
0 0 0 
0 0 0 
0 0 0 
0 0 0 
0 0 0 
0 0 0 
0 0 0 
0 0 0 
0 0 0 
0 0 0 
0 0 0 
0 0 0 
0 0 0 
0 0 0 
0 0 0 
0 0 0 
0 0 0 
0 0 0 
0 0 0 
0 0 0 
0 0 0 
0 0 0 
0 0 0 
0 0 0 
0 0 0 
0 0 0 
0 0 0 
0 0 0 
0 0 0 
0 0 0 
0 0 0 
0 0 0 
0 0 0 
0 0 0 
0 0 0 
0 0 0 
0 0 0 
0 0 0 
0 0 0 
0 0 0 
0 0 0 
0 0 0 
0 0 0 
0 0 0 
0 0 0 
0 0 0 
0 0 0 
0 0 0 
0 0 0 
0 0 0 
0 0 0 
0 0 0 
0 0 0 
0 0 0 
0 0 0 
0 0 0 
0 0 0 
0 0 0 
0 0 0 
0 0 0 
0 0 0 
0 0 0 
0 0 0 
0 0 0 
0 0 0 
0 0 0 
0 0 0 
0 0 0 
0 0 0 
0 0 0 
0 0 0 
0 0 0 
0 0 0 
0 0 0 
0 0 0 
0 0 0 
0 0 0 
0 0 0 
0 0 0 
0 0 0 
0 0 0 
0 0 0 
0 0 0 
0 0 0 
0 0 0 
0 0 0 
0 0 0 
0 0 0 
0 0 0 
0 0 0 
0 0 0 
0 0 0 
0 0 0 
0 0 0 
0 0 0 
0 0 0 
0 0 0 
0 0 0 
0 0 0 
0 0 0 
0 0 0 
0 0 0 
0 0 0 
0 0 0 
0 0 0 
0 0 0 
0 0 0 
0 0 0 
0 0 0 
0 0 0 
0 0 0 
0 0 0 
0 0 0 
0 0 0 
0 0 0 
0 0 0 
0 0 0 
0 0 0 
0 0 0 
0 0 0 
0 0 0 
0 0 0 
0 0 0 
0 0 0 
0 0 0 
0 0 0 
0 0 0 
0 0 0 
0 0 0 
0 0 0 
0 0 0 
0 0 0 
0 0 0 
0 0 0 
0 0 0 
0 0 0 
0 0 0 
0 0 0 
0 0 0 
0 0 0 
0 0 0 
0 0 0 
0 0 0 
0 0 0 
0 0 0 
0 0 0 
0 0 0 
0 0 0 
0 0 0 
0 0 0 
0 0 0 
0 0 0 
0 0 0 
0 0 0 
0 0 0 
0 0 0 
0 0 0 
0 0 0 
0 0 0 
0 0 0 
0 0 0 
0 0 0 
0 0 0 
0 0 0 
0 0 0 
0 0 0 
0 0 0 
0 0 0 
0 0 0 
0 0 0 
0 0 0 
0 0 0 
0 0 0 
0 0 0 
0 0 0 
0 0 0 
0 0 0 
0 0 0 
0 0 0 
0 0 0 
0 0 0 
0 0 0 
0 0 0 
0 0 0 
0 0 0 
0 0 0 
0 0 0 
0 0 0 
0 0 0 
0 0 0 
0 0 0 
0 0 0 
0 0 0 
0 0 0 
0 0 0 
0 0 0 
0 0 0 
0 0 0 
0 0 0 
0 0 0 
0 0 0 
0 0 0 
0 0 0 
0 0 0 
0 0 0 
0 0 0 
0 0 0 
0 0 0 
0 0 0 
0 0 0 
0 0 0 
0 0 0 
0 0 0 
0 0 0 
0 0 0 
0 0 0 
0 0 0 
0 0 0 
0 0 0 
0 0 0 
0 0 0 
0 0 0 
0 0 0 
0 0 0 
0 0 0 
0 0 0 
0 0 0 
0 0 0 
0 0 0 
0 0 0 
0 0 0 
0 0 0 
0 0 0 
0 0 0 
0 0 0 
0 0 0 
0 0 0 
0 0 0 
0 0 0 
0 0 0 
0 0 0 
0 0 0 
0 0 0 
0 0 0 
0 0 0 
0 0 0 
0 0 0 
0 0 0 
0 0 0 
0 0 0 
0 0 0 
0 0 0 
0 0 0 
0 0 0 
0 0 0 
0 0 0 
0 0 0 
0 0 0 
0 0 0 
0 0 0 
0 0 0 
0 0 0 
0 0 0 
0 0 0 
0 0 0 
0 0 0 
0 0 0 
0 0 0 
0 0 0 
0 0 0 
0 0 0 
0 0 0 
0 0 0 
0 0 0 
0 0 0 
0 0 0 
0 0 0 
0 0 0 
0 0 0 
0 0 0 
0 0 0 
0 0 0 
0 0 0 
0 0 0 
0 0 0 
0 0 0 
0 0 0 
0 0 0 
0 0 0 
0 0 0 
0 0 0 
0 0 0 
0 0 0 
0 0 0 
0 0 0 
0 0 0 
0 0 0 
0 0 0 
0 0 0 
0 0 0 
0 0 0 
0 0 0 
0 0 0 
0 0 0 
0 0 0 
0 0 0 
0 0 0 
0 0 0 
0 0 0 
0 0 0 
0 0 0 
0 0 0 
0 0 0 
0 0 0 
0 0 0 
0 0 0 
0 0 0 
0 0 0 
0 0 0 
0 0 0 
0 0 0 
0 0 0 
0 0 0 
0 0 0 
0 0 0 
0 0 0 
0 0 0 
0 0 0 
0 0 0 
0 0 0 
0 0 0 
0 0 0 
0 0 0 
0 0 0 
0 0 0 
0 0 0 
0 0 0 
0 0 0 
0 0 0 
0 0 0 
0 0 0 
0 0 0 
0 0 0 
0 0 0 
0 0 0 
0 0 0 
0 0 0 
0 0 0 
0 0 0 
0 0 0 
0 0 0 
0 0 0 
0 0 0 
0 0 0 
0 0 0 
0 0 0 
0 0 0 
0 0 0 
0 0 0 
0 0 0 
0 0 0 
0 0 0 
0 0 0 
0 0 0 
0 0 0 
0 0 0 
0 0 0 
0 0 0 
0 0 0 
0 0 0 
0 0 0 
0 0 0 
0 0 0 
0 0 0 
0 0 0 
0 0 0 
0 0 0 
0 0 0 
0 0 0 
0 0 0 
0 0 0 
0 0 0 
0 0 0 
0 0 0 
0 0 0 
0 0 0 
0 0 0 
0 0 0 
0 0 0 
0 0 0 
0 0 0 
0 0 0 
0 0 0 
0 0 0 
0 0 0 
0 0 0 
0 0 0 
0 0 0 
0 0 0 
0 0 0 
0 0 0 
0 0 0 
0 0 0 
0 0 0 
0 0 0 
0 0 0 
0 0 0 
0 0 0 
0 0 0 
0 0 0 
0 0 0 
0 0 0 
0 0 0 
0 0 0 
0 0 0 
0 0 0 
0 0 0 
0 0 0 
0 0 0 
0 0 0 
0 0 0 
0 0 0 
0 0 0 
0 0 0 
0 0 0 
0 0 0 
0 0 0 
0 0 0 
0 0 0 
0 0 0 
0 0 0 
0 0 0 
0 0 0 
0 0 0 
0 0 0 
0 0 0 
0 0 0 
0 0 0 
0 0 0 
0 0 0 
0 0 0 
0 0 0 
0 0 0 
0 0 0 
0 0 0 
0 0 0 
0 0 0 
0 0 0 
0 0 0 
0 0 0 
0 0 0 
0 0 0 
0 0 0 
0 0 0 
0 0 0 
0 0 0 
0 0 0 
0 0 0 
0 0 0 
0 0 0 
0 0 0 
0 0 0 
0 0 0 
0 0 0 
0 0 0 
0 0 0 
0 0 0 
0 0 0 
0 0 0 
0 0 0 
0 0 0 
0 0 0 
0 0 0 
0 0 0 
0 0 0 
0 0 0 
0 0 0 
0 0 0 
0 0 0 
0 0 0 
0 0 0 
0 0 0 
0 0 0 
0 0 0 
0 0 0 
0 0 0 
0 0 0 
0 0 0 
0 0 0 
0 0 0 
0 0 0 
0 0 0 
0 0 0 
0 0 0 
0 0 0 
0 0 0 
0 0 0 
0 0 0 
0 0 0 
0 0 0 
0 0 0 
0 0 0 
0 0 0 
0 0 0 
0 0 0 
0 0 0 
0 0 0 
0 0 0 
0 0 0 
0 0 0 
0 0 0 
0 0 0 
0 0 0 
0 0 0 
0 0 0 
0 0 0 
0 0 0 
0 0 0 
0 0 0 
0 0 0 
0 0 0 
0 0 0 
0 0 0 
0 0 0 
0 0 0 
0 0 0 
0 0 0 
0 0 0 
0 0 0 
0 0 0 
0 0 0 
0 0 0 
0 0 0 
0 0 0 
0 0 0 
0 0 0 
0 0 0 
0 0 0 
0 0 0 
0 0 0 
0 0 0 
0 0 0 
0 0 0 
0 0 0 
0 0 0 
0 0 0 
0 0 0 
0 0 0 
0 0 0 
0 0 0 
0 0 0 
0 0 0 
0 0 0 
0 0 0 
0 0 0 
0 0 0 
0 0 0 
0 0 0 
0 0 0 
0 0 0 
0 0 0 
0 0 0 
0 0 0 
0 0 0 
0 0 0 
0 0 0 
0 0 0 
0 0 0 
0 0 0 
0 0 0 
0 0 0 
0 0 0 
0 0 0 
0 0 0 
0 0 0 
0 0 0 
0 0 0 
0 0 0 
0 0 0 
0 0 0 
0 0 0 
0 0 0 
0 0 0 
0 0 0 
0 0 0 
0 0 0 
0 0 0 
0 0 0 
0 0 0 
0 0 0 
0 0 0 
0 0 0 
0 0 0 
0 0 0 
0 0 0 
0 0 0 
0 0 0 
0 0 0 
0 0 0 
0 0 0 
0 0 0 
0 0 0 
0 0 0 
0 0 0 
0 0 0 
0 0 0 
0 0 0 
0 0 0 
0 0 0 
0 0 0 
0 0 0 
0 0 0 
0 0 0 
0 0 0 
0 0 0 
0 0 0 
0 0 0 
0 0 0 
0 0 0 
0 0 0 
0 0 0 
0 0 0 
0 0 0 
0 0 0 
0 0 0 
0 0 0 
0 0 0 
0 0 0 
0 0 0 
0 0 0 
0 0 0 
0 0 0 
0 0 0 
0 0 0 
0 0 0 
0 0 0 
0 0 0 
0 0 0 
0 0 0 
0 0 0 
0 0 0 
0 0 0 
0 0 0 
0 0 0 
0 0 0 
0 0 0 
0 0 0 
0 0 0 
0 0 0 
0 0 0 
0 0 0 
0 0 0 
0 0 0 
0 0 0 
0 0 0 
0 0 0 
0 0 0 
0 0 0 
0 0 0 
0 0 0 
0 0 0 
0 0 0 
0 0 0 
0 0 0 
0 0 0 
0 0 0 
0 0 0 
0 0 0 
0 0 0 
0 0 0 
0 0 0 
0 0 0 
0 0 0 
0 0 0 
0 0 0 
0 0 0 
0 0 0 
0 0 0 
0 0 0 
0 0 0 
0 0 0 
0 0 0 
0 0 0 
0 0 0 
0 0 0 
0 0 0 
0 0 0 
0 0 0 
0 0 0 
0 0 0 
0 0 0 
0 0 0 
0 0 0 
0 0 0 
0 0 0 
0 0 0 
0 0 0 
0 0 0 
0 0 0 
0 0 0 
0 0 0 
0 0 0 
0 0 0 
0 0 0 
0 0 0 
0 0 0 
0 0 0 
0 0 0 
0 0 0 
0 0 0 
0 0 0 
0 0 0 
0 0 0 
0 0 0 
0 0 0 
0 0 0 
0 0 0 
0 0 0 
0 0 0 
0 0 0 
0 0 0 
0 0 0 
0 0 0 
0 0 0 
0 0 0 
0 0 0 
0 0 0 
0 0 0 
0 0 0 
0 0 0 
0 0 0 
0 0 0 
0 0 0 
0 0 0 
0 0 0 
0 0 0 
0 0 0 
0 0 0 
0 0 0 
0 0 0 
0 0 0 
0 0 0 
0 0 0 
0 0 0 
0 0 0 
0 0 0 
0 0 0 
0 0 0 
0 0 0 
0 0 0 
0 0 0 
0 0 0 
0 0 0 
0 0 0 
0 0 0 
0 0 0 
0 0 0 
0 0 0 
0 0 0 
0 0 0 
0 0 0 
0 0 0 
0 0 0 
0 0 0 
0 0 0 
0 0 0 
0 0 0 
0 0 0 
0 0 0 
0 0 0 
0 0 0 
0 0 0 
0 0 0 
0 0 0 
0 0 0 
0 0 0 
0 0 0 
0 0 0 
0 0 0 
0 0 0 
0 0 0 
0 0 0 
0 0 0 
0 0 0 
0 0 0 
0 0 0 
0 0 0 
0 0 0 
0 0 0 
0 0 0 
0 0 0 
0 0 0 
0 0 0 
0 0 0 
0 0 0 
0 0 0 
0 0 0 
0 0 0 
0 0 0 
0 0 0 
0 0 0 
0 0 0 
0 0 0 
0 0 0 
0 0 0 
0 0 0 
0 0 0 
0 0 0 
0 0 0 
0 0 0 
0 0 0 
0 0 0 
0 0 0 
0 0 0 
0 0 0 
0 0 0 
0 0 0 
0 0 0 
0 0 0 
0 0 0 
0 0 0 
0 0 0 
0 0 0 
0 0 0 
0 0 0 
0 0 0 
0 0 0 
0 0 0 
0 0 0 
0 0 0 
0 0 0 
0 0 0 
0 0 0 
0 0 0 
0 0 0 
0 0 0 
0 0 0 
0 0 0 
0 0 0 
0 0 0 
0 0 0 
0 0 0 
0 0 0 
0 0 0 
0 0 0 
0 0 0 
0 0 0 
0 0 0 
0 0 0 
0 0 0 
0 0 0 
0 0 0 
0 0 0 
0 0 0 
0 0 0 
0 0 0 
0 0 0 
0 0 0 
0 0 0 
0 0 0 
0 0 0 
0 0 0 
0 0 0 
0 0 0 
0 0 0 
0 0 0 
0 0 0 
0 0 0 
0 0 0 
0 0 0 
0 0 0 
0 0 0 
0 0 0 
0 0 0 
0 0 0 
0 0 0 
0 0 0 
0 0 0 
0 0 0 
0 0 0 
0 0 0 
0 0 0 
0 0 0 
0 0 0 
0 0 0 
0 0 0 
0 0 0 
0 0 0 
0 0 0 
0 0 0 
0 0 0 
0 0 0 
0 0 0 
0 0 0 
0 0 0 
0 0 0 
0 0 0 
0 0 0 
0 0 0 
0 0 0 
0 0 0 
0 0 0 
0 0 0 
0 0 0 
0 0 0 
0 0 0 
0 0 0 
0 0 0 
0 0 0 
0 0 0 
0 0 0 
0 0 0 
0 0 0 
0 0 0 
0 0 0 
0 0 0 
0 0 0 
0 0 0 
0 0 0 
0 0 0 
0 0 0 
0 0 0 
0 0 0 
0 0 0 
0 0 0 
0 0 0 
0 0 0 
0 0 0 
0 0 0 
0 0 0 
0 0 0 
0 0 0 
0 0 0 
0 0 0 
0 0 0 
0 0 0 
0 0 0 
0 0 0 
0 0 0 
0 0 0 
0 0 0 
0 0 0 
0 0 0 
0 0 0 
0 0 0 
0 0 0 
0 0 0 
0 0 0 
0 0 0 
0 0 0 
0 0 0 
0 0 0 
0 0 0 
0 0 0 
0 0 0 
0 0 0 
0 0 0 
0 0 0 
0 0 0 
0 0 0 
0 0 0 
0 0 0 
0 0 0 
0 0 0 
0 0 0 
0 0 0 
0 0 0 
0 0 0 
0 0 0 
0 0 0 
0 0 0 
0 0 0 
0 0 0 
0 0 0 
0 0 0 
0 0 0 
0 0 0 
0 0 0 
0 0 0 
0 0 0 
0 0 0 
0 0 0 
0 0 0 
0 0 0 
0 0 0 
0 0 0 
0 0 0 
0 0 0 
0 0 0 
0 0 0 
0 0 0 
0 0 0 
0 0 0 
0 0 0 
0 0 0 
0 0 0 
0 0 0 
0 0 0 
0 0 0 
0 0 0 
0 0 0 
0 0 0 
0 0 0 
0 0 0 
0 0 0 
0 0 0 
0 0 0 
0 0 0 
0 0 0 
0 0 0 
0 0 0 
0 0 0 
0 0 0 
0 0 0 
0 0 0 
0 0 0 
0 0 0 
0 0 0 
0 0 0 
0 0 0 
0 0 0 
0 0 0 
0 0 0 
0 0 0 
0 0 0 
0 0 0 
0 0 0 
0 0 0 
0 0 0 
0 0 0 
0 0 0 
0 0 0 
0 0 0 
0 0 0 
0 0 0 
0 0 0 
0 0 0 
0 0 0 
0 0 0 
0 0 0 
0 0 0 
0 0 0 
0 0 0 
0 0 0 
0 0 0 
0 0 0 
0 0 0 
0 0 0 
0 0 0 
0 0 0 
0 0 0 
0 0 0 
0 0 0 
0 0 0 
0 0 0 
0 0 0 
0 0 0 
0 0 0 
0 0 0 
0 0 0 
0 0 0 
0 0 0 
0 0 0 
0 0 0 
0 0 0 
0 0 0 
0 0 0 
0 0 0 
0 0 0 
0 0 0 
0 0 0 
0 0 0 
0 0 0 
0 0 0 
0 0 0 
0 0 0 
0 0 0 
0 0 0 
0 0 0 
0 0 0 
0 0 0 
0 0 0 
0 0 0 
0 0 0 
0 0 0 
0 0 0 
0 0 0 
0 0 0 
0 0 0 
0 0 0 
0 0 0 
0 0 0 
0 0 0 
0 0 0 
0 0 0 
0 0 0 
0 0 0 
0 0 0 
0 0 0 
0 0 0 
0 0 0 
0 0 0 
0 0 0 
0 0 0 
0 0 0 
0 0 0 
0 0 0 
0 0 0 
0 0 0 
0 0 0 
0 0 0 
0 0 0 
0 0 0 
0 0 0 
0 0 0 
0 0 0 
0 0 0 
0 0 0 
0 0 0 
0 0 0 
0 0 0 
0 0 0 
0 0 0 
0 0 0 
0 0 0 
0 0 0 
0 0 0 
0 0 0 
0 0 0 
0 0 0 
0 0 0 
0 0 0 
0 0 0 
0 0 0 
0 0 0 
0 0 0 
0 0 0 
0 0 0 
0 0 0 
0 0 0 
0 0 0 
0 0 0 
0 0 0 
0 0 0 
0 0 0 
0 0 0 
0 0 0 
0 0 0 
0 0 0 
0 0 0 
0 0 0 
0 0 0 
0 0 0 
0 0 0 
0 0 0 
0 0 0 
0 0 0 
0 0 0 
0 0 0 
0 0 0 
0 0 0 
0 0 0 
0 0 0 
0 0 0 
0 0 0 
0 0 0 
0 0 0 
0 0 0 
0 0 0 
0 0 0 
0 0 0 
0 0 0 
0 0 0 
0 0 0 
0 0 0 
0 0 0 
0 0 0 
0 0 0 
0 0 0 
0 0 0 
0 0 0 
0 0 0 
0 0 0 
0 0 0 
0 0 0 
0 0 0 
0 0 0 
0 0 0 
0 0 0 
0 0 0 
0 0 0 
0 0 0 
0 0 0 
0 0 0 
0 0 0 
0 0 0 
0 0 0 
0 0 0 
0 0 0 
0 0 0 
0 0 0 
0 0 0 
0 0 0 
0 0 0 
0 0 0 
0 0 0 
0 0 0 
0 0 0 
0 0 0 
0 0 0 
0 0 0 
0 0 0 
0 0 0 
0 0 0 
0 0 0 
0 0 0 
0 0 0 
0 0 0 
0 0 0 
0 0 0 
0 0 0 
0 0 0 
0 0 0 
0 0 0 
0 0 0 
0 0 0 
0 0 0 
0 0 0 
0 0 0 
0 0 0 
0 0 0 
0 0 0 
0 0 0 
0 0 0 
0 0 0 
0 0 0 
0 0 0 
0 0 0 
0 0 0 
0 0 0 
0 0 0 
0 0 0 
0 0 0 
0 0 0 
0 0 0 
0 0 0 
0 0 0 
0 0 0 
0 0 0 
0 0 0 
0 0 0 
0 0 0 
0 0 0 
0 0 0 
0 0 0 
0 0 0 
0 0 0 
0 0 0 
0 0 0 
0 0 0 
0 0 0 
0 0 0 
0 0 0 
0 0 0 
0 0 0 
0 0 0 
0 0 0 
0 0 0 
0 0 0 
0 0 0 
0 0 0 
0 0 0 
0 0 0 
0 0 0 
0 0 0 
0 0 0 
0 0 0 
0 0 0 
0 0 0 
0 0 0 
0 0 0 
0 0 0 
0 0 0 
0 0 0 
0 0 0 
0 0 0 
0 0 0 
0 0 0 
0 0 0 
0 0 0 
0 0 0 
0 0 0 
0 0 0 
0 0 0 
0 0 0 
0 0 0 
0 0 0 
0 0 0 
0 0 0 
0 0 0 
0 0 0 
0 0 0 
0 0 0 
0 0 0 
0 0 0 
0 0 0 
0 0 0 
0 0 0 
0 0 0 
0 0 0 
0 0 0 
0 0 0 
0 0 0 
0 0 0 
0 0 0 
0 0 0 
0 0 0 
0 0 0 
0 0 0 
0 0 0 
0 0 0 
0 0 0 
0 0 0 
0 0 0 
0 0 0 
0 0 0 
0 0 0 
0 0 0 
0 0 0 
0 0 0 
0 0 0 
0 0 0 
0 0 0 
0 0 0 
0 0 0 
0 0 0 
0 0 0 
0 0 0 
0 0 0 
0 0 0 
0 0 0 
0 0 0 
0 0 0 
0 0 0 
0 0 0 
0 0 0 
0 0 0 
0 0 0 
0 0 0 
0 0 0 
0 0 0 
0 0 0 
0 0 0 
0 0 0 
0 0 0 
0 0 0 
0 0 0 
0 0 0 
0 0 0 
0 0 0 
0 0 0 
0 0 0 
0 0 0 
0 0 0 
0 0 0 
0 0 0 
0 0 0 
0 0 0 
0 0 0 
0 0 0 
0 0 0 
0 0 0 
0 0 0 
0 0 0 
0 0 0 
0 0 0 
0 0 0 
0 0 0 
0 0 0 
0 0 0 
0 0 0 
0 0 0 
0 0 0 
0 0 0 
0 0 0 
0 0 0 
0 0 0 
0 0 0 
0 0 0 
0 0 0 
0 0 0 
0 0 0 
0 0 0 
0 0 0 
0 0 0 
0 0 0 
0 0 0 
0 0 0 
0 0 0 
0 0 0 
0 0 0 
0 0 0 
0 0 0 
0 0 0 
0 0 0 
0 0 0 
0 0 0 
0 0 0 
0 0 0 
0 0 0 
0 0 0 
0 0 0 
0 0 0 
0 0 0 
0 0 0 
0 0 0 
0 0 0 
0 0 0 
0 0 0 
0 0 0 
0 0 0 
0 0 0 
0 0 0 
0 0 0 
0 0 0 
0 0 0 
0 0 0 
0 0 0 
0 0 0 
0 0 0 
0 0 0 
0 0 0 
0 0 0 
0 0 0 
0 0 0 
0 0 0 
0 0 0 
0 0 0 
0 0 0 
0 0 0 
0 0 0 
0 0 0 
0 0 0 
0 0 0 
0 0 0 
0 0 0 
0 0 0 
0 0 0 
0 0 0 
0 0 0 
0 0 0 
0 0 0 
0 0 0 
0 0 0 
0 0 0 
0 0 0 
0 0 0 
0 0 0 
0 0 0 
0 0 0 
0 0 0 
0 0 0 
0 0 0 
0 0 0 
0 0 0 
0 0 0 
0 0 0 
0 0 0 
0 0 0 
0 0 0 
0 0 0 
0 0 0 
0 0 0 
0 0 0 
0 0 0 
0 0 0 
0 0 0 
0 0 0 
0 0 0 
0 0 0 
0 0 0 
0 0 0 
0 0 0 
0 0 0 
0 0 0 
0 0 0 
0 0 0 
0 0 0 
0 0 0 
0 0 0 
0 0 0 
0 0 0 
0 0 0 
0 0 0 
0 0 0 
0 0 0 
0 0 0 
0 0 0 
0 0 0 
0 0 0 
0 0 0 
0 0 0 
0 0 0 
0 0 0 
0 0 0 
0 0 0 
0 0 0 
0 0 0 
0 0 0 
0 0 0 
0 0 0 
0 0 0 
0 0 0 
0 0 0 
0 0 0 
0 0 0 
0 0 0 
0 0 0 
0 0 0 
0 0 0 
0 0 0 
0 0 0 
0 0 0 
0 0 0 
0 0 0 
0 0 0 
0 0 0 
0 0 0 
0 0 0 
0 0 0 
0 0 0 
0 0 0 
0 0 0 
0 0 0 
0 0 0 
0 0 0 
0 0 0 
0 0 0 
0 0 0 
0 0 0 
0 0 0 
0 0 0 
0 0 0 
0 0 0 
0 0 0 
0 0 0 
0 0 0 
0 0 0 
0 0 0 
0 0 0 
0 0 0 
0 0 0 
0 0 0 
0 0 0 
0 0 0 
0 0 0 
0 0 0 
0 0 0 
0 0 0 
0 0 0 
0 0 0 
0 0 0 
0 0 0 
0 0 0 
0 0 0 
0 0 0 
0 0 0 
0 0 0 
0 0 0 
0 0 0 
0 0 0 
0 0 0 
0 0 0 
0 0 0 
0 0 0 
0 0 0 
0 0 0 
0 0 0 
0 0 0 
0 0 0 
0 0 0 
0 0 0 
0 0 0 
0 0 0 
0 0 0 
0 0 0 
0 0 0 
0 0 0 
0 0 0 
0 0 0 
0 0 0 
0 0 0 
0 0 0 
0 0 0 
0 0 0 
0 0 0 
0 0 0 
0 0 0 
0 0 0 
0 0 0 
0 0 0 
0 0 0 
0 0 0 
0 0 0 
0 0 0 
0 0 0 
0 0 0 
0 0 0 
0 0 0 
0 0 0 
0 0 0 
0 0 0 
0 0 0 
0 0 0 
0 0 0 
0 0 0 
0 0 0 
0 0 0 
0 0 0 
0 0 0 
0 0 0 
0 0 0 
0 0 0 
0 0 0 
0 0 0 
0 0 0 
0 0 0 
0 0 0 
0 0 0 
0 0 0 
0 0 0 
0 0 0 
0 0 0 
0 0 0 
0 0 0 
0 0 0 
0 0 0 
0 0 0 
0 0 0 
0 0 0 
0 0 0 
0 0 0 
0 0 0 
0 0 0 
0 0 0 
0 0 0 
0 0 0 
0 0 0 
0 0 0 
0 0 0 
0 0 0 
0 0 0 
0 0 0 
0 0 0 
0 0 0 
0 0 0 
0 0 0 
0 0 0 
0 0 0 
0 0 0 
0 0 0 
0 0 0 
0 0 0 
0 0 0 
0 0 0 
0 0 0 
0 0 0 
0 0 0 
0 0 0 
0 0 0 
0 0 0 
0 0 0 
0 0 0 
0 0 0 
0 0 0 
0 0 0 
0 0 0 
0 0 0 
0 0 0 
0 0 0 
0 0 0 
0 0 0 
0 0 0 
0 0 0 
0 0 0 
0 0 0 
0 0 0 
0 0 0 
0 0 0 
0 0 0 
0 0 0 
0 0 0 
0 0 0 
0 0 0 
0 0 0 
0 0 0 
0 0 0 
0 0 0 
0 0 0 
0 0 0 
0 0 0 
0 0 0 
0 0 0 
0 0 0 
0 0 0 
0 0 0 
0 0 0 
0 0 0 
0 0 0 
0 0 0 
0 0 0 
0 0 0 
0 0 0 
0 0 0 
0 0 0 
0 0 0 
0 0 0 
0 0 0 
0 0 0 
0 0 0 
0 0 0 
0 0 0 
0 0 0 
0 0 0 
0 0 0 
0 0 0 
0 0 0 
0 0 0 
0 0 0 
0 0 0 
0 0 0 
0 0 0 
0 0 0 
0 0 0 
0 0 0 
0 0 0 
0 0 0 
0 0 0 
0 0 0 
0 0 0 
0 0 0 
0 0 0 
0 0 0 
0 0 0 
0 0 0 
0 0 0 
0 0 0 
0 0 0 
0 0 0 
0 0 0 
0 0 0 
0 0 0 
0 0 0 
0 0 0 
0 0 0 
0 0 0 
0 0 0 
0 0 0 
0 0 0 
0 0 0 
0 0 0 
0 0 0 
0 0 0 
0 0 0 
0 0 0 
0 0 0 
0 0 0 
0 0 0 
0 0 0 
0 0 0 
0 0 0 
0 0 0 
0 0 0 
0 0 0 
0 0 0 
0 0 0 
0 0 0 
0 0 0 
0 0 0 
0 0 0 
0 0 0 
0 0 0 
0 0 0 
0 0 0 
0 0 0 
0 0 0 
0 0 0 
0 0 0 
0 0 0 
0 0 0 
0 0 0 
0 0 0 
0 0 0 
0 0 0 
0 0 0 
0 0 0 
0 0 0 
0 0 0 
0 0 0 
0 0 0 
0 0 0 
0 0 0 
0 0 0 
0 0 0 
0 0 0 
0 0 0 
0 0 0 
0 0 0 
0 0 0 
0 0 0 
0 0 0 
0 0 0 
0 0 0 
0 0 0 
0 0 0 
0 0 0 
0 0 0 
0 0 0 
0 0 0 
0 0 0 
0 0 0 
0 0 0 
0 0 0 
0 0 0 
0 0 0 
0 0 0 
0 0 0 
0 0 0 
0 0 0 
0 0 0 
0 0 0 
0 0 0 
0 0 0 
0 0 0 
0 0 0 
0 0 0 
0 0 0 
0 0 0 
0 0 0 
0 0 0 
0 0 0 
0 0 0 
0 0 0 
0 0 0 
0 0 0 
0 0 0 
0 0 0 
0 0 0 
0 0 0 
0 0 0 
0 0 0 
0 0 0 
0 0 0 
0 0 0 
0 0 0 
0 0 0 
0 0 0 
0 0 0 
0 0 0 
0 0 0 
0 0 0 
0 0 0 
0 0 0 
0 0 0 
0 0 0 
0 0 0 
0 0 0 
0 0 0 
0 0 0 
0 0 0 
0 0 0 
0 0 0 
0 0 0 
0 0 0 
0 0 0 
0 0 0 
0 0 0 
0 0 0 
0 0 0 
0 0 0 
0 0 0 
0 0 0 
0 0 0 
0 0 0 
0 0 0 
0 0 0 
0 0 0 
0 0 0 
0 0 0 
0 0 0 
0 0 0 
0 0 0 
0 0 0 
0 0 0 
0 0 0 
0 0 0 
0 0 0 
0 0 0 
0 0 0 
0 0 0 
0 0 0 
0 0 0 
0 0 0 
0 0 0 
0 0 0 
0 0 0 
0 0 0 
0 0 0 
0 0 0 
0 0 0 
0 0 0 
0 0 0 
0 0 0 
0 0 0 
0 0 0 
0 0 0 
0 0 0 
0 0 0 
0 0 0 
0 0 0 
0 0 0 
0 0 0 
0 0 0 
0 0 0 
0 0 0 
0 0 0 
0 0 0 
0 0 0 
0 0 0 
0 0 0 
0 0 0 
0 0 0 
0 0 0 
0 0 0 
0 0 0 
0 0 0 
0 0 0 
0 0 0 
0 0 0 
0 0 0 
0 0 0 
0 0 0 
0 0 0 
0 0 0 
0 0 0 
0 0 0 
0 0 0 
0 0 0 
0 0 0 
0 0 0 
0 0 0 
0 0 0 
0 0 0 
0 0 0 
0 0 0 
0 0 0 
0 0 0 
0 0 0 
0 0 0 
0 0 0 
0 0 0 
0 0 0 
0 0 0 
0 0 0 
0 0 0 
0 0 0 
0 0 0 
0 0 0 
0 0 0 
0 0 0 
0 0 0 
0 0 0 
0 0 0 
0 0 0 
0 0 0 
0 0 0 
0 0 0 
0 0 0 
0 0 0 
0 0 0 
0 0 0 
0 0 0 
0 0 0 
0 0 0 
0 0 0 
0 0 0 
0 0 0 
0 0 0 
0 0 0 
0 0 0 
0 0 0 
0 0 0 
0 0 0 
0 0 0 
0 0 0 
0 0 0 
0 0 0 
0 0 0 
0 0 0 
0 0 0 
0 0 0 
0 0 0 
0 0 0 
0 0 0 
0 0 0 
0 0 0 
0 0 0 
0 0 0 
0 0 0 
0 0 0 
0 0 0 
0 0 0 
0 0 0 
0 0 0 
0 0 0 
0 0 0 
0 0 0 
0 0 0 
0 0 0 
0 0 0 
0 0 0 
0 0 0 
0 0 0 
0 0 0 
0 0 0 
0 0 0 
0 0 0 
0 0 0 
0 0 0 
0 0 0 
0 0 0 
0 0 0 
0 0 0 
0 0 0 
0 0 0 
0 0 0 
0 0 0 
0 0 0 
0 0 0 
0 0 0 
0 0 0 
0 0 0 
0 0 0 
0 0 0 
0 0 0 
0 0 0 
0 0 0 
0 0 0 
0 0 0 
0 0 0 
0 0 0 
0 0 0 
0 0 0 
0 0 0 
0 0 0 
0 0 0 
0 0 0 
0 0 0 
0 0 0 
0 0 0 
0 0 0 
0 0 0 
0 0 0 
0 0 0 
0 0 0 
0 0 0 
0 0 0 
0 0 0 
0 0 0 
0 0 0 
0 0 0 
0 0 0 
0 0 0 
0 0 0 
0 0 0 
0 0 0 
0 0 0 
0 0 0 
0 0 0 
0 0 0 
0 0 0 
0 0 0 
0 0 0 
0 0 0 
0 0 0 
0 0 0 
0 0 0 
0 0 0 
0 0 0 
0 0 0 
0 0 0 
0 0 0 
0 0 0 
0 0 0 
0 0 0 
0 0 0 
0 0 0 
0 0 0 
0 0 0 
0 0 0 
0 0 0 
0 0 0 
0 0 0 
0 0 0 
0 0 0 
0 0 0 
0 0 0 
0 0 0 
0 0 0 
0 0 0 
0 0 0 
0 0 0 
0 0 0 
0 0 0 
0 0 0 
0 0 0 
0 0 0 
0 0 0 
0 0 0 
0 0 0 
0 0 0 
0 0 0 
0 0 0 
0 0 0 
0 0 0 
0 0 0 
0 0 0 
0 0 0 
0 0 0 
0 0 0 
0 0 0 
0 0 0 
0 0 0 
0 0 0 
0 0 0 
0 0 0 
0 0 0 
0 0 0 
0 0 0 
0 0 0 
0 0 0 
0 0 0 
0 0 0 
0 0 0 
0 0 0 
0 0 0 
0 0 0 
0 0 0 
0 0 0 
0 0 0 
0 0 0 
0 0 0 
0 0 0 
0 0 0 
0 0 0 
0 0 0 
0 0 0 
0 0 0 
0 0 0 
0 0 0 
0 0 0 
0 0 0 
0 0 0 
0 0 0 
0 0 0 
0 0 0 
0 0 0 
0 0 0 
0 0 0 
0 0 0 
0 0 0 
0 0 0 
0 0 0 
0 0 0 
0 0 0 
0 0 0 
0 0 0 
0 0 0 
0 0 0 
0 0 0 
0 0 0 
0 0 0 
0 0 0 
0 0 0 
0 0 0 
0 0 0 
0 0 0 
0 0 0 
0 0 0 
0 0 0 
0 0 0 
0 0 0 
0 0 0 
0 0 0 
0 0 0 
0 0 0 
0 0 0 
0 0 0 
0 0 0 
0 0 0 
0 0 0 
0 0 0 
0 0 0 
0 0 0 
0 0 0 
0 0 0 
0 0 0 
0 0 0 
0 0 0 
0 0 0 
0 0 0 
0 0 0 
0 0 0 
0 0 0 
0 0 0 
0 0 0 
0 0 0 
0 0 0 
0 0 0 
0 0 0 
0 0 0 
0 0 0 
0 0 0 
0 0 0 
0 0 0 
0 0 0 
0 0 0 
0 0 0 
0 0 0 
0 0 0 
0 0 0 
0 0 0 
0 0 0 
0 0 0 
0 0 0 
0 0 0 
0 0 0 
0 0 0 
0 0 0 
0 0 0 
0 0 0 
0 0 0 
0 0 0 
0 0 0 
0 0 0 
0 0 0 
0 0 0 
0 0 0 
0 0 0 
0 0 0 
0 0 0 
0 0 0 
0 0 0 
0 0 0 
0 0 0 
0 0 0 
0 0 0 
0 0 0 
0 0 0 
0 0 0 
0 0 0 
0 0 0 
0 0 0 
0 0 0 
0 0 0 
0 0 0 
0 0 0 
0 0 0 
0 0 0 
0 0 0 
0 0 0 
0 0 0 
0 0 0 
0 0 0 
0 0 0 
0 0 0 
0 0 0 
0 0 0 
0 0 0 
0 0 0 
0 0 0 
0 0 0 
0 0 0 
0 0 0 
0 0 0 
0 0 0 
0 0 0 
0 0 0 
0 0 0 
0 0 0 
0 0 0 
0 0 0 
0 0 0 
0 0 0 
0 0 0 
0 0 0 
0 0 0 
0 0 0 
0 0 0 
0 0 0 
0 0 0 
0 0 0 
0 0 0 
0 0 0 
0 0 0 
0 0 0 
0 0 0 
0 0 0 
0 0 0 
0 0 0 
0 0 0 
0 0 0 
0 0 0 
0 0 0 
0 0 0 
0 0 0 
0 0 0 
0 0 0 
0 0 0 
0 0 0 
0 0 0 
0 0 0 
0 0 0 
0 0 0 
0 0 0 
0 0 0 
0 0 0 
0 0 0 
0 0 0 
0 0 0 
0 0 0 
0 0 0 
0 0 0 
0 0 0 
0 0 0 
0 0 0 
0 0 0 
0 0 0 
0 0 0 
0 0 0 
0 0 0 
0 0 0 
0 0 0 
0 0 0 
0 0 0 
0 0 0 
0 0 0 
0 0 0 
0 0 0 
0 0 0 
0 0 0 
0 0 0 
0 0 0 
0 0 0 
0 0 0 
0 0 0 
0 0 0 
0 0 0 
0 0 0 
0 0 0 
0 0 0 
0 0 0 
0 0 0 
0 0 0 
0 0 0 
0 0 0 
0 0 0 
0 0 0 
0 0 0 
0 0 0 
0 0 0 
0 0 0 
0 0 0 
0 0 0 
0 0 0 
0 0 0 
0 0 0 
0 0 0 
0 0 0 
0 0 0 
0 0 0 
0 0 0 
0 0 0 
0 0 0 
0 0 0 
0 0 0 
0 0 0 
0 0 0 
0 0 0 
0 0 0 
0 0 0 
0 0 0 
0 0 0 
0 0 0 
0 0 0 
0 0 0 
0 0 0 
0 0 0 
0 0 0 
0 0 0 
0 0 0 
0 0 0 
0 0 0 
0 0 0 
0 0 0 
0 0 0 
0 0 0 
0 0 0 
0 0 0 
0 0 0 
0 0 0 
0 0 0 
0 0 0 
0 0 0 
0 0 0 
0 0 0 
0 0 0 
0 0 0 
0 0 0 
0 0 0 
0 0 0 
0 0 0 
0 0 0 
0 0 0 
0 0 0 
0 0 0 
0 0 0 
0 0 0 
0 0 0 
0 0 0 
0 0 0 
0 0 0 
0 0 0 
0 0 0 
0 0 0 
0 0 0 
0 0 0 
0 0 0 
0 0 0 
0 0 0 
0 0 0 
0 0 0 
0 0 0 
0 0 0 
0 0 0 
0 0 0 
0 0 0 
0 0 0 
0 0 0 
0 0 0 
0 0 0 
0 0 0 
0 0 0 
0 0 0 
0 0 0 
0 0 0 
0 0 0 
0 0 0 
0 0 0 
0 0 0 
0 0 0 
0 0 0 
0 0 0 
0 0 0 
0 0 0 
0 0 0 
0 0 0 
0 0 0 
0 0 0 
0 0 0 
0 0 0 
0 0 0 
0 0 0 
0 0 0 
0 0 0 
0 0 0 
0 0 0 
0 0 0 
0 0 0 
0 0 0 
0 0 0 
0 0 0 
0 0 0 
0 0 0 
0 0 0 
0 0 0 
0 0 0 
0 0 0 
0 0 0 
0 0 0 
0 0 0 
0 0 0 
0 0 0 
0 0 0 
0 0 0 
0 0 0 
0 0 0 
0 0 0 
0 0 0 
0 0 0 
0 0 0 
0 0 0 
0 0 0 
0 0 0 
0 0 0 
0 0 0 
0 0 0 
0 0 0 
0 0 0 
0 0 0 
0 0 0 
0 0 0 
0 0 0 
0 0 0 
0 0 0 
0 0 0 
0 0 0 
0 0 0 
0 0 0 
0 0 0 
0 0 0 
0 0 0 
0 0 0 
0 0 0 
0 0 0 
0 0 0 
0 0 0 
0 0 0 
0 0 0 
0 0 0 
0 0 0 
0 0 0 
0 0 0 
0 0 0 
0 0 0 
0 0 0 
0 0 0 
0 0 0 
0 0 0 
0 0 0 
0 0 0 
0 0 0 
0 0 0 
0 0 0 
0 0 0 
0 0 0 
0 0 0 
0 0 0 
0 0 0 
0 0 0 
0 0 0 
0 0 0 
0 0 0 
0 0 0 
0 0 0 
0 0 0 
0 0 0 
0 0 0 
0 0 0 
0 0 0 
0 0 0 
0 0 0 
0 0 0 
0 0 0 
0 0 0 
0 0 0 
0 0 0 
0 0 0 
0 0 0 
0 0 0 
0 0 0 
0 0 0 
0 0 0 
0 0 0 
0 0 0 
0 0 0 
0 0 0 
0 0 0 
0 0 0 
0 0 0 
0 0 0 
0 0 0 
0 0 0 
0 0 0 
0 0 0 
0 0 0 
0 0 0 
0 0 0 
0 0 0 
0 0 0 
0 0 0 
0 0 0 
0 0 0 
0 0 0 
0 0 0 
0 0 0 
0 0 0 
0 0 0 
0 0 0 
0 0 0 
0 0 0 
0 0 0 
0 0 0 
0 0 0 
0 0 0 
0 0 0 
0 0 0 
0 0 0 
0 0 0 
0 0 0 
0 0 0 
0 0 0 
0 0 0 
0 0 0 
0 0 0 
0 0 0 
0 0 0 
0 0 0 
0 0 0 
0 0 0 
0 0 0 
0 0 0 
0 0 0 
0 0 0 
0 0 0 
0 0 0 
0 0 0 
0 0 0 
0 0 0 
0 0 0 
0 0 0 
0 0 0 
0 0 0 
0 0 0 
0 0 0 
0 0 0 
0 0 0 
0 0 0 
0 0 0 
0 0 0 
0 0 0 
0 0 0 
0 0 0 
0 0 0 
0 0 0 
0 0 0 
0 0 0 
0 0 0 
0 0 0 
0 0 0 
0 0 0 
0 0 0 
0 0 0 
0 0 0 
0 0 0 
0 0 0 
0 0 0 
0 0 0 
0 0 0 
0 0 0 
0 0 0 
0 0 0 
0 0 0 
0 0 0 
0 0 0 
0 0 0 
0 0 0 
0 0 0 
0 0 0 
0 0 0 
0 0 0 
0 0 0 
0 0 0 
0 0 0 
0 0 0 
0 0 0 
0 0 0 
0 0 0 
0 0 0 
0 0 0 
0 0 0 
0 0 0 
0 0 0 
0 0 0 
0 0 0 
0 0 0 
0 0 0 
0 0 0 
0 0 0 
0 0 0 
0 0 0 
0 0 0 
0 0 0 
0 0 0 
0 0 0 
0 0 0 
0 0 0 
0 0 0 
0 0 0 
0 0 0 
0 0 0 
0 0 0 
0 0 0 
0 0 0 
0 0 0 
0 0 0 
0 0 0 
0 0 0 
0 0 0 
0 0 0 
0 0 0 
0 0 0 
0 0 0 
0 0 0 
0 0 0 
0 0 0 
0 0 0 
0 0 0 
0 0 0 
0 0 0 
0 0 0 
0 0 0 
0 0 0 
0 0 0 
0 0 0 
0 0 0 
0 0 0 
0 0 0 
0 0 0 
0 0 0 
0 0 0 
0 0 0 
0 0 0 
0 0 0 
0 0 0 
0 0 0 
0 0 0 
0 0 0 
0 0 0 
0 0 0 
0 0 0 
0 0 0 
0 0 0 
0 0 0 
0 0 0 
0 0 0 
0 0 0 
0 0 0 
0 0 0 
0 0 0 
0 0 0 
0 0 0 
0 0 0 
0 0 0 
0 0 0 
0 0 0 
0 0 0 
0 0 0 
0 0 0 
0 0 0 
0 0 0 
0 0 0 
0 0 0 
0 0 0 
0 0 0 
0 0 0 
0 0 0 
0 0 0 
0 0 0 
0 0 0 
0 0 0 
0 0 0 
0 0 0 
0 0 0 
0 0 0 
0 0 0 
0 0 0 
0 0 0 
0 0 0 
0 0 0 
0 0 0 
0 0 0 
0 0 0 
0 0 0 
0 0 0 
0 0 0 
0 0 0 
0 0 0 
0 0 0 
0 0 0 
0 0 0 
0 0 0 
0 0 0 
0 0 0 
0 0 0 
0 0 0 
0 0 0 
0 0 0 
0 0 0 
0 0 0 
0 0 0 
0 0 0 
0 0 0 
0 0 0 
0 0 0 
0 0 0 
0 0 0 
0 0 0 
0 0 0 
0 0 0 
0 0 0 
0 0 0 
0 0 0 
0 0 0 
0 0 0 
0 0 0 
0 0 0 
0 0 0 
0 0 0 
0 0 0 
0 0 0 
0 0 0 
0 0 0 
0 0 0 
0 0 0 
0 0 0 
0 0 0 
0 0 0 
0 0 0 
0 0 0 
0 0 0 
0 0 0 
0 0 0 
0 0 0 
0 0 0 
0 0 0 
0 0 0 
0 0 0 
0 0 0 
0 0 0 
0 0 0 
0 0 0 
0 0 0 
0 0 0 
0 0 0 
0 0 0 
0 0 0 
0 0 0 
0 0 0 
0 0 0 
0 0 0 
0 0 0 
0 0 0 
0 0 0 
0 0 0 
0 0 0 
0 0 0 
0 0 0 
0 0 0 
0 0 0 
0 0 0 
0 0 0 
0 0 0 
0 0 0 
0 0 0 
0 0 0 
0 0 0 
0 0 0 
0 0 0 
0 0 0 
0 0 0 
0 0 0 
0 0 0 
0 0 0 
0 0 0 
0 0 0 
0 0 0 
0 0 0 
0 0 0 
0 0 0 
0 0 0 
0 0 0 
0 0 0 
0 0 0 
0 0 0 
0 0 0 
0 0 0 
0 0 0 
0 0 0 
0 0 0 
0 0 0 
0 0 0 
0 0 0 
0 0 0 
0 0 0 
0 0 0 
0 0 0 
0 0 0 
0 0 0 
0 0 0 
0 0 0 
0 0 0 
0 0 0 
0 0 0 
0 0 0 
0 0 0 
0 0 0 
0 0 0 
0 0 0 
0 0 0 
0 0 0 
0 0 0 
0 0 0 
0 0 0 
0 0 0 
0 0 0 
0 0 0 
0 0 0 
0 0 0 
0 0 0 
0 0 0 
0 0 0 
0 0 0 
0 0 0 
0 0 0 
0 0 0 
0 0 0 
0 0 0 
0 0 0 
0 0 0 
0 0 0 
0 0 0 
0 0 0 
0 0 0 
0 0 0 
0 0 0 
0 0 0 
0 0 0 
0 0 0 
0 0 0 
0 0 0 
0 0 0 
0 0 0 
0 0 0 
0 0 0 
0 0 0 
0 0 0 
0 0 0 
0 0 0 
0 0 0 
0 0 0 
0 0 0 
0 0 0 
0 0 0 
0 0 0 
0 0 0 
0 0 0 
0 0 0 
0 0 0 
0 0 0 
0 0 0 
0 0 0 
0 0 0 
0 0 0 
0 0 0 
0 0 0 
0 0 0 
0 0 0 
0 0 0 
0 0 0 
0 0 0 
0 0 0 
0 0 0 
0 0 0 
0 0 0 
0 0 0 
0 0 0 
0 0 0 
0 0 0 
0 0 0 
0 0 0 
0 0 0 
0 0 0 
0 0 0 
0 0 0 
0 0 0 
0 0 0 
0 0 0 
0 0 0 
0 0 0 
0 0 0 
0 0 0 
0 0 0 
0 0 0 
0 0 0 
0 0 0 
0 0 0 
0 0 0 
0 0 0 
0 0 0 
0 0 0 
0 0 0 
0 0 0 
0 0 0 
0 0 0 
0 0 0 
0 0 0 
0 0 0 
0 0 0 
0 0 0 
0 0 0 
0 0 0 
0 0 0 
0 0 0 
0 0 0 
0 0 0 
0 0 0 
0 0 0 
0 0 0 
0 0 0 
0 0 0 
0 0 0 
0 0 0 
0 0 0 
0 0 0 
0 0 0 
0 0 0 
0 0 0 
0 0 0 
0 0 0 
0 0 0 
0 0 0 
0 0 0 
0 0 0 
0 0 0 
0 0 0 
0 0 0 
0 0 0 
0 0 0 
0 0 0 
0 0 0 
0 0 0 
0 0 0 
0 0 0 
0 0 0 
0 0 0 
0 0 0 
0 0 0 
0 0 0 
0 0 0 
0 0 0 
0 0 0 
0 0 0 
0 0 0 
0 0 0 
0 0 0 
0 0 0 
0 0 0 
0 0 0 
0 0 0 
0 0 0 
0 0 0 
0 0 0 
0 0 0 
0 0 0 
0 0 0 
0 0 0 
0 0 0 
0 0 0 
0 0 0 
0 0 0 
0 0 0 
0 0 0 
0 0 0 
0 0 0 
0 0 0 
0 0 0 
0 0 0 
0 0 0 
0 0 0 
0 0 0 
0 0 0 
0 0 0 
0 0 0 
0 0 0 
0 0 0 
0 0 0 
0 0 0 
0 0 0 
0 0 0 
0 0 0 
0 0 0 
0 0 0 
0 0 0 
0 0 0 
0 0 0 
0 0 0 
0 0 0 
0 0 0 
0 0 0 
0 0 0 
0 0 0 
0 0 0 
0 0 0 
0 0 0 
0 0 0 
0 0 0 
0 0 0 
0 0 0 
0 0 0 
0 0 0 
0 0 0 
0 0 0 
0 0 0 
0 0 0 
0 0 0 
0 0 0 
0 0 0 
0 0 0 
0 0 0 
0 0 0 
0 0 0 
0 0 0 
0 0 0 
0 0 0 
0 0 0 
0 0 0 
0 0 0 
0 0 0 
0 0 0 
0 0 0 
0 0 0 
0 0 0 
0 0 0 
0 0 0 
0 0 0 
0 0 0 
0 0 0 
0 0 0 
0 0 0 
0 0 0 
0 0 0 
0 0 0 
0 0 0 
0 0 0 
0 0 0 
0 0 0 
0 0 0 
0 0 0 
0 0 0 
0 0 0 
0 0 0 
0 0 0 
0 0 0 
0 0 0 
0 0 0 
0 0 0 
0 0 0 
0 0 0 
0 0 0 
0 0 0 
0 0 0 
0 0 0 
0 0 0 
0 0 0 
0 0 0 
0 0 0 
0 0 0 
0 0 0 
0 0 0 
0 0 0 
0 0 0 
0 0 0 
0 0 0 
0 0 0 
0 0 0 
0 0 0 
0 0 0 
0 0 0 
0 0 0 
0 0 0 
0 0 0 
0 0 0 
0 0 0 
0 0 0 
0 0 0 
0 0 0 
0 0 0 
0 0 0 
0 0 0 
0 0 0 
0 0 0 
0 0 0 
0 0 0 
0 0 0 
0 0 0 
0 0 0 
0 0 0 
0 0 0 
0 0 0 
0 0 0 
0 0 0 
0 0 0 
0 0 0 
0 0 0 
0 0 0 
0 0 0 
0 0 0 
0 0 0 
0 0 0 
0 0 0 
0 0 0 
0 0 0 
0 0 0 
0 0 0 
0 0 0 
0 0 0 
0 0 0 
0 0 0 
0 0 0 
0 0 0 
0 0 0 
0 0 0 
0 0 0 
0 0 0 
0 0 0 
0 0 0 
0 0 0 
0 0 0 
0 0 0 
0 0 0 
0 0 0 
0 0 0 
0 0 0 
0 0 0 
0 0 0 
0 0 0 
0 0 0 
0 0 0 
0 0 0 
0 0 0 
0 0 0 
0 0 0 
0 0 0 
0 0 0 
0 0 0 
0 0 0 
0 0 0 
0 0 0 
0 0 0 
0 0 0 
0 0 0 
0 0 0 
0 0 0 
0 0 0 
0 0 0 
0 0 0 
0 0 0 
0 0 0 
0 0 0 
0 0 0 
0 0 0 
0 0 0 
0 0 0 
0 0 0 
0 0 0 
0 0 0 
0 0 0 
0 0 0 
0 0 0 
0 0 0 
0 0 0 
0 0 0 
0 0 0 
0 0 0 
0 0 0 
0 0 0 
0 0 0 
0 0 0 
0 0 0 
0 0 0 
0 0 0 
0 0 0 
0 0 0 
0 0 0 
0 0 0 
0 0 0 
0 0 0 
0 0 0 
0 0 0 
0 0 0 
0 0 0 
0 0 0 
0 0 0 
0 0 0 
0 0 0 
0 0 0 
0 0 0 
0 0 0 
0 0 0 
0 0 0 
0 0 0 
0 0 0 
0 0 0 
0 0 0 
0 0 0 
0 0 0 
0 0 0 
0 0 0 
0 0 0 
0 0 0 
0 0 0 
0 0 0 
0 0 0 
0 0 0 
0 0 0 
0 0 0 
0 0 0 
0 0 0 
0 0 0 
0 0 0 
0 0 0 
0 0 0 
0 0 0 
0 0 0 
0 0 0 
0 0 0 
0 0 0 
0 0 0 
0 0 0 
0 0 0 
0 0 0 
0 0 0 
0 0 0 
0 0 0 
0 0 0 
0 0 0 
0 0 0 
0 0 0 
0 0 0 
0 0 0 
0 0 0 
0 0 0 
0 0 0 
0 0 0 
0 0 0 
0 0 0 
0 0 0 
0 0 0 
0 0 0 
0 0 0 
0 0 0 
0 0 0 
0 0 0 
0 0 0 
0 0 0 
0 0 0 
0 0 0 
0 0 0 
0 0 0 
0 0 0 
0 0 0 
0 0 0 
0 0 0 
0 0 0 
0 0 0 
0 0 0 
0 0 0 
0 0 0 
0 0 0 
0 0 0 
0 0 0 
0 0 0 
0 0 0 
0 0 0 
0 0 0 
0 0 0 
0 0 0 
0 0 0 
0 0 0 
0 0 0 
0 0 0 
0 0 0 
0 0 0 
0 0 0 
0 0 0 
0 0 0 
0 0 0 
0 0 0 
0 0 0 
0 0 0 
0 0 0 
0 0 0 
0 0 0 
0 0 0 
0 0 0 
0 0 0 
0 0 0 
0 0 0 
0 0 0 
0 0 0 
0 0 0 
0 0 0 
0 0 0 
0 0 0 
0 0 0 
0 0 0 
0 0 0 
0 0 0 
0 0 0 
0 0 0 
0 0 0 
0 0 0 
0 0 0 
0 0 0 
0 0 0 
0 0 0 
0 0 0 
0 0 0 
0 0 0 
0 0 0 
0 0 0 
0 0 0 
0 0 0 
0 0 0 
0 0 0 
0 0 0 
0 0 0 
0 0 0 
0 0 0 
0 0 0 
0 0 0 
0 0 0 
0 0 0 
0 0 0 
0 0 0 
0 0 0 
0 0 0 
0 0 0 
0 0 0 
0 0 0 
0 0 0 
0 0 0 
0 0 0 
0 0 0 
0 0 0 
0 0 0 
0 0 0 
0 0 0 
0 0 0 
0 0 0 
0 0 0 
0 0 0 
0 0 0 
0 0 0 
0 0 0 
0 0 0 
0 0 0 
0 0 0 
0 0 0 
0 0 0 
0 0 0 
0 0 0 
0 0 0 
0 0 0 
0 0 0 
0 0 0 
0 0 0 
0 0 0 
0 0 0 
0 0 0 
0 0 0 
0 0 0 
0 0 0 
0 0 0 
0 0 0 
0 0 0 
0 0 0 
0 0 0 
0 0 0 
0 0 0 
0 0 0 
0 0 0 
0 0 0 
0 0 0 
0 0 0 
0 0 0 
0 0 0 
0 0 0 
0 0 0 
0 0 0 
0 0 0 
0 0 0 
0 0 0 
0 0 0 
0 0 0 
0 0 0 
0 0 0 
0 0 0 
0 0 0 
0 0 0 
0 0 0 
0 0 0 
0 0 0 
0 0 0 
0 0 0 
0 0 0 
0 0 0 
0 0 0 
0 0 0 
0 0 0 
0 0 0 
0 0 0 
0 0 0 
0 0 0 
0 0 0 
0 0 0 
0 0 0 
0 0 0 
0 0 0 
0 0 0 
0 0 0 
0 0 0 
0 0 0 
0 0 0 
0 0 0 
0 0 0 
0 0 0 
0 0 0 
0 0 0 
0 0 0 
0 0 0 
0 0 0 
0 0 0 
0 0 0 
0 0 0 
0 0 0 
0 0 0 
0 0 0 
0 0 0 
0 0 0 
0 0 0 
0 0 0 
0 0 0 
0 0 0 
0 0 0 
0 0 0 
0 0 0 
0 0 0 
0 0 0 
0 0 0 
0 0 0 
0 0 0 
0 0 0 
0 0 0 
0 0 0 
0 0 0 
0 0 0 
0 0 0 
0 0 0 
0 0 0 
0 0 0 
0 0 0 
0 0 0 
0 0 0 
0 0 0 
0 0 0 
0 0 0 
0 0 0 
0 0 0 
0 0 0 
0 0 0 
0 0 0 
0 0 0 
0 0 0 
0 0 0 
0 0 0 
0 0 0 
0 0 0 
0 0 0 
0 0 0 
0 0 0 
0 0 0 
0 0 0 
0 0 0 
0 0 0 
0 0 0 
0 0 0 
0 0 0 
0 0 0 
0 0 0 
0 0 0 
0 0 0 
0 0 0 
0 0 0 
0 0 0 
0 0 0 
0 0 0 
0 0 0 
0 0 0 
0 0 0 
0 0 0 
0 0 0 
0 0 0 
0 0 0 
0 0 0 
0 0 0 
0 0 0 
0 0 0 
0 0 0 
0 0 0 
0 0 0 
0 0 0 
0 0 0 
0 0 0 
0 0 0 
0 0 0 
0 0 0 
0 0 0 
0 0 0 
0 0 0 
0 0 0 
0 0 0 
0 0 0 
0 0 0 
0 0 0 
0 0 0 
0 0 0 
0 0 0 
0 0 0 
0 0 0 
0 0 0 
0 0 0 
0 0 0 
0 0 0 
0 0 0 
0 0 0 
0 0 0 
0 0 0 
0 0 0 
0 0 0 
0 0 0 
0 0 0 
0 0 0 
0 0 0 
0 0 0 
0 0 0 
0 0 0 
0 0 0 
0 0 0 
0 0 0 
0 0 0 
0 0 0 
0 0 0 
0 0 0 
0 0 0 
0 0 0 
0 0 0 
0 0 0 
0 0 0 
0 0 0 
0 0 0 
0 0 0 
0 0 0 
0 0 0 
0 0 0 
0 0 0 
0 0 0 
0 0 0 
0 0 0 
0 0 0 
0 0 0 
0 0 0 
0 0 0 
0 0 0 
0 0 0 
0 0 0 
0 0 0 
0 0 0 
0 0 0 
0 0 0 
0 0 0 
0 0 0 
0 0 0 
0 0 0 
0 0 0 
0 0 0 
0 0 0 
0 0 0 
0 0 0 
0 0 0 
0 0 0 
0 0 0 
0 0 0 
0 0 0 
0 0 0 
0 0 0 
0 0 0 
0 0 0 
0 0 0 
0 0 0 
0 0 0 
0 0 0 
0 0 0 
0 0 0 
0 0 0 
0 0 0 
0 0 0 
0 0 0 
0 0 0 
0 0 0 
0 0 0 
0 0 0 
0 0 0 
0 0 0 
0 0 0 
0 0 0 
0 0 0 
0 0 0 
0 0 0 
0 0 0 
0 0 0 
0 0 0 
0 0 0 
0 0 0 
0 0 0 
0 0 0 
0 0 0 
0 0 0 
0 0 0 
0 0 0 
0 0 0 
0 0 0 
0 0 0 
0 0 0 
0 0 0 
0 0 0 
0 0 0 
0 0 0 
0 0 0 
0 0 0 
0 0 0 
0 0 0 
0 0 0 
0 0 0 
0 0 0 
0 0 0 
0 0 0 
0 0 0 
0 0 0 
0 0 0 
0 0 0 
0 0 0 
0 0 0 
0 0 0 
0 0 0 
0 0 0 
0 0 0 
0 0 0 
0 0 0 
0 0 0 
0 0 0 
0 0 0 
0 0 0 
0 0 0 
0 0 0 
0 0 0 
0 0 0 
0 0 0 
0 0 0 
0 0 0 
0 0 0 
0 0 0 
0 0 0 
0 0 0 
0 0 0 
0 0 0 
0 0 0 
0 0 0 
0 0 0 
0 0 0 
0 0 0 
0 0 0 
0 0 0 
0 0 0 
0 0 0 
0 0 0 
0 0 0 
0 0 0 
0 0 0 
0 0 0 
0 0 0 
0 0 0 
0 0 0 
0 0 0 
0 0 0 
0 0 0 
0 0 0 
0 0 0 
0 0 0 
0 0 0 
0 0 0 
0 0 0 
0 0 0 
0 0 0 
0 0 0 
0 0 0 
0 0 0 
0 0 0 
0 0 0 
0 0 0 
0 0 0 
0 0 0 
0 0 0 
0 0 0 
0 0 0 
0 0 0 
0 0 0 
0 0 0 
0 0 0 
0 0 0 
0 0 0 
0 0 0 
0 0 0 
0 0 0 
0 0 0 
0 0 0 
0 0 0 
0 0 0 
0 0 0 
0 0 0 
0 0 0 
0 0 0 
0 0 0 
0 0 0 
0 0 0 
0 0 0 
0 0 0 
0 0 0 
0 0 0 
0 0 0 
0 0 0 
0 0 0 
0 0 0 
0 0 0 
0 0 0 
0 0 0 
0 0 0 
0 0 0 
0 0 0 
0 0 0 
0 0 0 
0 0 0 
0 0 0 
0 0 0 
0 0 0 
0 0 0 
0 0 0 
0 0 0 
0 0 0 
0 0 0 
0 0 0 
0 0 0 
0 0 0 
0 0 0 
0 0 0 
0 0 0 
0 0 0 
0 0 0 
0 0 0 
0 0 0 
0 0 0 
0 0 0 
0 0 0 
0 0 0 
0 0 0 
0 0 0 
0 0 0 
0 0 0 
0 0 0 
0 0 0 
0 0 0 
0 0 0 
0 0 0 
0 0 0 
0 0 0 
0 0 0 
0 0 0 
0 0 0 
0 0 0 
0 0 0 
0 0 0 
0 0 0 
0 0 0 
0 0 0 
0 0 0 
0 0 0 
0 0 0 
0 0 0 
0 0 0 
0 0 0 
0 0 0 
0 0 0 
0 0 0 
0 0 0 
0 0 0 
0 0 0 
0 0 0 
0 0 0 
0 0 0 
0 0 0 
0 0 0 
0 0 0 
0 0 0 
0 0 0 
0 0 0 
0 0 0 
0 0 0 
0 0 0 
0 0 0 
0 0 0 
0 0 0 
0 0 0 
0 0 0 
0 0 0 
0 0 0 
0 0 0 
0 0 0 
0 0 0 
0 0 0 
0 0 0 
0 0 0 
0 0 0 
0 0 0 
0 0 0 
0 0 0 
0 0 0 
0 0 0 
0 0 0 
0 0 0 
0 0 0 
0 0 0 
0 0 0 
0 0 0 
0 0 0 
0 0 0 
0 0 0 
0 0 0 
0 0 0 
0 0 0 
0 0 0 
0 0 0 
0 0 0 
0 0 0 
0 0 0 
0 0 0 
0 0 0 
0 0 0 
0 0 0 
0 0 0 
0 0 0 
0 0 0 
0 0 0 
0 0 0 
0 0 0 
0 0 0 
0 0 0 
0 0 0 
0 0 0 
0 0 0 
0 0 0 
0 0 0 
0 0 0 
0 0 0 
0 0 0 
0 0 0 
0 0 0 
0 0 0 
0 0 0 
0 0 0 
0 0 0 
0 0 0 
0 0 0 
0 0 0 
0 0 0 
0 0 0 
0 0 0 
0 0 0 
0 0 0 
0 0 0 
0 0 0 
0 0 0 
0 0 0 
0 0 0 
0 0 0 
0 0 0 
0 0 0 
0 0 0 
0 0 0 
0 0 0 
0 0 0 
0 0 0 
0 0 0 
0 0 0 
0 0 0 
0 0 0 
0 0 0 
0 0 0 
0 0 0 
0 0 0 
0 0 0 
0 0 0 
0 0 0 
0 0 0 
0 0 0 
0 0 0 
0 0 0 
0 0 0 
0 0 0 
0 0 0 
0 0 0 
0 0 0 
0 0 0 
0 0 0 
0 0 0 
0 0 0 
0 0 0 
0 0 0 
0 0 0 
0 0 0 
0 0 0 
0 0 0 
0 0 0 
0 0 0 
0 0 0 
0 0 0 
0 0 0 
0 0 0 
0 0 0 
0 0 0 
0 0 0 
0 0 0 
0 0 0 
0 0 0 
0 0 0 
0 0 0 
0 0 0 
0 0 0 
0 0 0 
0 0 0 
0 0 0 
0 0 0 
0 0 0 
0 0 0 
0 0 0 
0 0 0 
0 0 0 
0 0 0 
0 0 0 
0 0 0 
0 0 0 
0 0 0 
0 0 0 
0 0 0 
0 0 0 
0 0 0 
0 0 0 
0 0 0 
0 0 0 
0 0 0 
0 0 0 
0 0 0 
0 0 0 
0 0 0 
0 0 0 
0 0 0 
0 0 0 
0 0 0 
0 0 0 
0 0 0 
0 0 0 
0 0 0 
0 0 0 
0 0 0 
0 0 0 
0 0 0 
0 0 0 
0 0 0 
0 0 0 
0 0 0 
0 0 0 
0 0 0 
0 0 0 
0 0 0 
0 0 0 
0 0 0 
0 0 0 
0 0 0 
0 0 0 
0 0 0 
0 0 0 
0 0 0 
0 0 0 
0 0 0 
0 0 0 
0 0 0 
0 0 0 
0 0 0 
0 0 0 
0 0 0 
0 0 0 
0 0 0 
0 0 0 
0 0 0 
0 0 0 
0 0 0 
0 0 0 
0 0 0 
0 0 0 
0 0 0 
0 0 0 
0 0 0 
0 0 0 
0 0 0 
0 0 0 
0 0 0 
0 0 0 
0 0 0 
0 0 0 
0 0 0 
0 0 0 
0 0 0 
0 0 0 
0 0 0 
0 0 0 
0 0 0 
0 0 0 
0 0 0 
0 0 0 
0 0 0 
0 0 0 
0 0 0 
0 0 0 
0 0 0 
0 0 0 
0 0 0 
0 0 0 
0 0 0 
0 0 0 
0 0 0 
0 0 0 
0 0 0 
0 0 0 
0 0 0 
0 0 0 
0 0 0 
0 0 0 
0 0 0 
0 0 0 
0 0 0 
0 0 0 
0 0 0 
0 0 0 
0 0 0 
0 0 0 
0 0 0 
0 0 0 
0 0 0 
0 0 0 
0 0 0 
0 0 0 
0 0 0 
0 0 0 
0 0 0 
0 0 0 
0 0 0 
0 0 0 
0 0 0 
0 0 0 
0 0 0 
0 0 0 
0 0 0 
0 0 0 
0 0 0 
0 0 0 
0 0 0 
0 0 0 
0 0 0 
0 0 0 
0 0 0 
0 0 0 
0 0 0 
0 0 0 
0 0 0 
0 0 0 
0 0 0 
0 0 0 
0 0 0 
0 0 0 
0 0 0 
0 0 0 
0 0 0 
0 0 0 
0 0 0 
0 0 0 
0 0 0 
0 0 0 
0 0 0 
0 0 0 
0 0 0 
0 0 0 
0 0 0 
0 0 0 
0 0 0 
0 0 0 
0 0 0 
0 0 0 
0 0 0 
0 0 0 
0 0 0 
0 0 0 
0 0 0 
0 0 0 
0 0 0 
0 0 0 
0 0 0 
0 0 0 
0 0 0 
0 0 0 
0 0 0 
0 0 0 
0 0 0 
0 0 0 
0 0 0 
0 0 0 
0 0 0 
0 0 0 
0 0 0 
0 0 0 
0 0 0 
0 0 0 
0 0 0 
0 0 0 
0 0 0 
0 0 0 
0 0 0 
0 0 0 
0 0 0 
0 0 0 
0 0 0 
0 0 0 
0 0 0 
0 0 0 
0 0 0 
0 0 0 
0 0 0 
0 0 0 
0 0 0 
0 0 0 
0 0 0 
0 0 0 
0 0 0 
0 0 0 
0 0 0 
0 0 0 
0 0 0 
0 0 0 
0 0 0 
0 0 0 
0 0 0 
0 0 0 
0 0 0 
0 0 0 
0 0 0 
0 0 0 
0 0 0 
0 0 0 
0 0 0 
0 0 0 
0 0 0 
0 0 0 
0 0 0 
0 0 0 
0 0 0 
0 0 0 
0 0 0 
0 0 0 
0 0 0 
0 0 0 
0 0 0 
0 0 0 
0 0 0 
0 0 0 
0 0 0 
0 0 0 
0 0 0 
0 0 0 
0 0 0 
0 0 0 
0 0 0 
0 0 0 
0 0 0 
0 0 0 
0 0 0 
0 0 0 
0 0 0 
0 0 0 
0 0 0 
0 0 0 
0 0 0 
0 0 0 
0 0 0 
0 0 0 
0 0 0 
0 0 0 
0 0 0 
0 0 0 
0 0 0 
0 0 0 
0 0 0 
0 0 0 
0 0 0 
0 0 0 
0 0 0 
0 0 0 
0 0 0 
0 0 0 
0 0 0 
0 0 0 
0 0 0 
0 0 0 
0 0 0 
0 0 0 
0 0 0 
0 0 0 
0 0 0 
0 0 0 
0 0 0 
0 0 0 
0 0 0 
0 0 0 
0 0 0 
0 0 0 
0 0 0 
0 0 0 
0 0 0 
0 0 0 
0 0 0 
0 0 0 
0 0 0 
0 0 0 
0 0 0 
0 0 0 
0 0 0 
0 0 0 
0 0 0 
0 0 0 
0 0 0 
0 0 0 
0 0 0 
0 0 0 
0 0 0 
0 0 0 
0 0 0 
0 0 0 
0 0 0 
0 0 0 
0 0 0 
0 0 0 
0 0 0 
0 0 0 
0 0 0 
0 0 0 
0 0 0 
0 0 0 
0 0 0 
0 0 0 
0 0 0 
0 0 0 
0 0 0 
0 0 0 
0 0 0 
0 0 0 
0 0 0 
0 0 0 
0 0 0 
0 0 0 
0 0 0 
0 0 0 
0 0 0 
0 0 0 
0 0 0 
0 0 0 
0 0 0 
0 0 0 
0 0 0 
0 0 0 
0 0 0 
0 0 0 
0 0 0 
0 0 0 
0 0 0 
0 0 0 
0 0 0 
0 0 0 
0 0 0 
0 0 0 
0 0 0 
0 0 0 
0 0 0 
0 0 0 
0 0 0 
0 0 0 
0 0 0 
0 0 0 
0 0 0 
0 0 0 
0 0 0 
0 0 0 
0 0 0 
0 0 0 
0 0 0 
0 0 0 
0 0 0 
0 0 0 
0 0 0 
0 0 0 
0 0 0 
0 0 0 
0 0 0 
0 0 0 
0 0 0 
0 0 0 
0 0 0 
0 0 0 
0 0 0 
0 0 0 
0 0 0 
0 0 0 
0 0 0 
0 0 0 
0 0 0 
0 0 0 
0 0 0 
0 0 0 
0 0 0 
0 0 0 
0 0 0 
0 0 0 
0 0 0 
0 0 0 
0 0 0 
0 0 0 
0 0 0 
0 0 0 
0 0 0 
0 0 0 
0 0 0 
0 0 0 
0 0 0 
0 0 0 
0 0 0 
0 0 0 
0 0 0 
0 0 0 
0 0 0 
0 0 0 
0 0 0 
0 0 0 
0 0 0 
0 0 0 
0 0 0 
0 0 0 
0 0 0 
0 0 0 
0 0 0 
0 0 0 
0 0 0 
0 0 0 
0 0 0 
0 0 0 
0 0 0 
0 0 0 
0 0 0 
0 0 0 
0 0 0 
0 0 0 
0 0 0 
0 0 0 
0 0 0 
0 0 0 
0 0 0 
0 0 0 
0 0 0 
0 0 0 
0 0 0 
0 0 0 
0 0 0 
0 0 0 
0 0 0 
0 0 0 
0 0 0 
0 0 0 
0 0 0 
0 0 0 
0 0 0 
0 0 0 
0 0 0 
0 0 0 
0 0 0 
0 0 0 
0 0 0 
0 0 0 
0 0 0 
0 0 0 
0 0 0 
0 0 0 
0 0 0 
0 0 0 
0 0 0 
0 0 0 
0 0 0 
0 0 0 
0 0 0 
0 0 0 
0 0 0 
0 0 0 
0 0 0 
0 0 0 
0 0 0 
0 0 0 
0 0 0 
0 0 0 
0 0 0 
0 0 0 
0 0 0 
0 0 0 
0 0 0 
0 0 0 
0 0 0 
0 0 0 
0 0 0 
0 0 0 
0 0 0 
0 0 0 
0 0 0 
0 0 0 
0 0 0 
0 0 0 
0 0 0 
0 0 0 
0 0 0 
0 0 0 
0 0 0 
0 0 0 
0 0 0 
0 0 0 
0 0 0 
0 0 0 
0 0 0 
0 0 0 
0 0 0 
0 0 0 
0 0 0 
0 0 0 
0 0 0 
0 0 0 
0 0 0 
0 0 0 
0 0 0 
0 0 0 
0 0 0 
0 0 0 
0 0 0 
0 0 0 
0 0 0 
0 0 0 
0 0 0 
0 0 0 
0 0 0 
0 0 0 
0 0 0 
0 0 0 
0 0 0 
0 0 0 
0 0 0 
0 0 0 
0 0 0 
0 0 0 
0 0 0 
0 0 0 
0 0 0 
0 0 0 
0 0 0 
0 0 0 
0 0 0 
0 0 0 
0 0 0 
0 0 0 
0 0 0 
0 0 0 
0 0 0 
0 0 0 
0 0 0 
0 0 0 
0 0 0 
0 0 0 
0 0 0 
0 0 0 
0 0 0 
0 0 0 
0 0 0 
0 0 0 
0 0 0 
0 0 0 
0 0 0 
0 0 0 
0 0 0 
0 0 0 
0 0 0 
0 0 0 
0 0 0 
0 0 0 
0 0 0 
0 0 0 
0 0 0 
0 0 0 
0 0 0 
0 0 0 
0 0 0 
0 0 0 
0 0 0 
0 0 0 
0 0 0 
0 0 0 
0 0 0 
0 0 0 
0 0 0 
0 0 0 
0 0 0 
0 0 0 
0 0 0 
0 0 0 
0 0 0 
0 0 0 
0 0 0 
0 0 0 
0 0 0 
0 0 0 
0 0 0 
0 0 0 
0 0 0 
0 0 0 
0 0 0 
0 0 0 
0 0 0 
0 0 0 
0 0 0 
0 0 0 
0 0 0 
0 0 0 
0 0 0 
0 0 0 
0 0 0 
0 0 0 
0 0 0 
0 0 0 
0 0 0 
0 0 0 
0 0 0 
0 0 0 
0 0 0 
0 0 0 
0 0 0 
0 0 0 
0 0 0 
0 0 0 
0 0 0 
0 0 0 
0 0 0 
0 0 0 
0 0 0 
0 0 0 
0 0 0 
0 0 0 
0 0 0 
0 0 0 
0 0 0 
0 0 0 
0 0 0 
0 0 0 
0 0 0 
0 0 0 
0 0 0 
0 0 0 
0 0 0 
0 0 0 
0 0 0 
0 0 0 
0 0 0 
0 0 0 
0 0 0 
0 0 0 
0 0 0 
0 0 0 
0 0 0 
0 0 0 
0 0 0 
0 0 0 
0 0 0 
0 0 0 
0 0 0 
0 0 0 
0 0 0 
0 0 0 
0 0 0 
0 0 0 
0 0 0 
0 0 0 
0 0 0 
0 0 0 
0 0 0 
0 0 0 
0 0 0 
0 0 0 
0 0 0 
0 0 0 
0 0 0 
0 0 0 
0 0 0 
0 0 0 
0 0 0 
0 0 0 
0 0 0 
0 0 0 
0 0 0 
0 0 0 
0 0 0 
0 0 0 
0 0 0 
0 0 0 
0 0 0 
0 0 0 
0 0 0 
0 0 0 
0 0 0 
0 0 0 
0 0 0 
0 0 0 
0 0 0 
0 0 0 
0 0 0 
0 0 0 
0 0 0 
0 0 0 
0 0 0 
0 0 0 
0 0 0 
0 0 0 
0 0 0 
0 0 0 
0 0 0 
0 0 0 
0 0 0 
0 0 0 
0 0 0 
0 0 0 
0 0 0 
0 0 0 
0 0 0 
0 0 0 
0 0 0 
0 0 0 
0 0 0 
0 0 0 
0 0 0 
0 0 0 
0 0 0 
0 0 0 
0 0 0 
0 0 0 
0 0 0 
0 0 0 
0 0 0 
0 0 0 
0 0 0 
0 0 0 
0 0 0 
0 0 0 
0 0 0 
0 0 0 
0 0 0 
0 0 0 
0 0 0 
0 0 0 
0 0 0 
0 0 0 
0 0 0 
0 0 0 
0 0 0 
0 0 0 
0 0 0 
0 0 0 
0 0 0 
0 0 0 
0 0 0 
0 0 0 
0 0 0 
0 0 0 
0 0 0 
0 0 0 
0 0 0 
0 0 0 
0 0 0 
0 0 0 
0 0 0 
0 0 0 
0 0 0 
0 0 0 
0 0 0 
0 0 0 
0 0 0 
0 0 0 
0 0 0 
0 0 0 
0 0 0 
0 0 0 
0 0 0 
0 0 0 
0 0 0 
0 0 0 
0 0 0 
0 0 0 
0 0 0 
0 0 0 
0 0 0 
0 0 0 
0 0 0 
0 0 0 
0 0 0 
0 0 0 
0 0 0 
0 0 0 
0 0 0 
0 0 0 
0 0 0 
0 0 0 
0 0 0 
0 0 0 
0 0 0 
0 0 0 
0 0 0 
0 0 0 
0 0 0 
0 0 0 
0 0 0 
0 0 0 
0 0 0 
0 0 0 
0 0 0 
0 0 0 
0 0 0 
0 0 0 
0 0 0 
0 0 0 
0 0 0 
0 0 0 
0 0 0 
0 0 0 
0 0 0 
0 0 0 
0 0 0 
0 0 0 
0 0 0 
0 0 0 
0 0 0 
0 0 0 
0 0 0 
0 0 0 
0 0 0 
0 0 0 
0 0 0 
0 0 0 
0 0 0 
0 0 0 
0 0 0 
0 0 0 
0 0 0 
0 0 0 
0 0 0 
0 0 0 
0 0 0 
0 0 0 
0 0 0 
0 0 0 
0 0 0 
0 0 0 
0 0 0 
0 0 0 
0 0 0 
0 0 0 
0 0 0 
0 0 0 
0 0 0 
0 0 0 
0 0 0 
0 0 0 
0 0 0 
0 0 0 
0 0 0 
0 0 0 
0 0 0 
0 0 0 
0 0 0 
0 0 0 
0 0 0 
0 0 0 
0 0 0 
0 0 0 
0 0 0 
0 0 0 
0 0 0 
0 0 0 
0 0 0 
0 0 0 
0 0 0 
0 0 0 
0 0 0 
0 0 0 
0 0 0 
0 0 0 
0 0 0 
0 0 0 
0 0 0 
0 0 0 
0 0 0 
0 0 0 
0 0 0 
0 0 0 
0 0 0 
0 0 0 
0 0 0 
0 0 0 
0 0 0 
0 0 0 
0 0 0 
0 0 0 
0 0 0 
0 0 0 
0 0 0 
0 0 0 
0 0 0 
0 0 0 
0 0 0 
0 0 0 
0 0 0 
0 0 0 
0 0 0 
0 0 0 
0 0 0 
0 0 0 
0 0 0 
0 0 0 
0 0 0 
0 0 0 
0 0 0 
0 0 0 
0 0 0 
0 0 0 
0 0 0 
0 0 0 
0 0 0 
0 0 0 
0 0 0 
0 0 0 
0 0 0 
0 0 0 
0 0 0 
0 0 0 
0 0 0 
0 0 0 
0 0 0 
0 0 0 
0 0 0 
0 0 0 
0 0 0 
0 0 0 
0 0 0 
0 0 0 
0 0 0 
0 0 0 
0 0 0 
0 0 0 
0 0 0 
0 0 0 
0 0 0 
0 0 0 
0 0 0 
0 0 0 
0 0 0 
0 0 0 
0 0 0 
0 0 0 
0 0 0 
0 0 0 
0 0 0 
0 0 0 
0 0 0 
0 0 0 
0 0 0 
0 0 0 
0 0 0 
0 0 0 
0 0 0 
0 0 0 
0 0 0 
0 0 0 
0 0 0 
0 0 0 
0 0 0 
0 0 0 
0 0 0 
0 0 0 
0 0 0 
0 0 0 
0 0 0 
0 0 0 
0 0 0 
0 0 0 
0 0 0 
0 0 0 
0 0 0 
0 0 0 
0 0 0 
0 0 0 
0 0 0 
0 0 0 
0 0 0 
0 0 0 
0 0 0 
0 0 0 
0 0 0 
0 0 0 
0 0 0 
0 0 0 
0 0 0 
0 0 0 
0 0 0 
0 0 0 
0 0 0 
0 0 0 
0 0 0 
0 0 0 
0 0 0 
0 0 0 
0 0 0 
0 0 0 
0 0 0 
0 0 0 
0 0 0 
0 0 0 
0 0 0 
0 0 0 
0 0 0 
0 0 0 
0 0 0 
0 0 0 
0 0 0 
0 0 0 
0 0 0 
0 0 0 
0 0 0 
0 0 0 
0 0 0 
0 0 0 
0 0 0 
0 0 0 
0 0 0 
0 0 0 
0 0 0 
0 0 0 
0 0 0 
0 0 0 
0 0 0 
0 0 0 
0 0 0 
0 0 0 
0 0 0 
0 0 0 
0 0 0 
0 0 0 
0 0 0 
0 0 0 
0 0 0 
0 0 0 
0 0 0 
0 0 0 
0 0 0 
0 0 0 
0 0 0 
0 0 0 
0 0 0 
0 0 0 
0 0 0 
0 0 0 
0 0 0 
0 0 0 
0 0 0 
0 0 0 
0 0 0 
0 0 0 
0 0 0 
0 0 0 
0 0 0 
0 0 0 
0 0 0 
0 0 0 
0 0 0 
0 0 0 
0 0 0 
0 0 0 
0 0 0 
0 0 0 
0 0 0 
0 0 0 
0 0 0 
0 0 0 
0 0 0 
0 0 0 
0 0 0 
0 0 0 
0 0 0 
0 0 0 
0 0 0 
0 0 0 
0 0 0 
0 0 0 
0 0 0 
0 0 0 
0 0 0 
0 0 0 
0 0 0 
0 0 0 
0 0 0 
0 0 0 
0 0 0 
0 0 0 
0 0 0 
0 0 0 
0 0 0 
0 0 0 
0 0 0 
0 0 0 
0 0 0 
0 0 0 
0 0 0 
0 0 0 
0 0 0 
0 0 0 
0 0 0 
0 0 0 
0 0 0 
0 0 0 
0 0 0 
0 0 0 
0 0 0 
0 0 0 
0 0 0 
0 0 0 
0 0 0 
0 0 0 
0 0 0 
0 0 0 
0 0 0 
0 0 0 
0 0 0 
0 0 0 
0 0 0 
0 0 0 
0 0 0 
0 0 0 
0 0 0 
0 0 0 
0 0 0 
0 0 0 
0 0 0 
0 0 0 
0 0 0 
0 0 0 
0 0 0 
0 0 0 
0 0 0 
0 0 0 
0 0 0 
0 0 0 
0 0 0 
0 0 0 
0 0 0 
0 0 0 
0 0 0 
0 0 0 
0 0 0 
0 0 0 
0 0 0 
0 0 0 
0 0 0 
0 0 0 
0 0 0 
0 0 0 
0 0 0 
0 0 0 
0 0 0 
0 0 0 
0 0 0 
0 0 0 
0 0 0 
0 0 0 
0 0 0 
0 0 0 
0 0 0 
0 0 0 
0 0 0 
0 0 0 
0 0 0 
0 0 0 
0 0 0 
0 0 0 
0 0 0 
0 0 0 
0 0 0 
0 0 0 
0 0 0 
0 0 0 
0 0 0 
0 0 0 
0 0 0 
0 0 0 
0 0 0 
0 0 0 
0 0 0 
0 0 0 
0 0 0 
0 0 0 
0 0 0 
0 0 0 
0 0 0 
0 0 0 
0 0 0 
0 0 0 
0 0 0 
0 0 0 
0 0 0 
0 0 0 
0 0 0 
0 0 0 
0 0 0 
0 0 0 
0 0 0 
0 0 0 
0 0 0 
0 0 0 
0 0 0 
0 0 0 
0 0 0 
0 0 0 
0 0 0 
0 0 0 
0 0 0 
0 0 0 
0 0 0 
0 0 0 
0 0 0 
0 0 0 
0 0 0 
0 0 0 
0 0 0 
0 0 0 
0 0 0 
0 0 0 
0 0 0 
0 0 0 
0 0 0 
0 0 0 
0 0 0 
0 0 0 
0 0 0 
0 0 0 
0 0 0 
0 0 0 
0 0 0 
0 0 0 
0 0 0 
0 0 0 
0 0 0 
0 0 0 
0 0 0 
0 0 0 
0 0 0 
0 0 0 
0 0 0 
0 0 0 
0 0 0 
0 0 0 
0 0 0 
0 0 0 
0 0 0 
0 0 0 
0 0 0 
0 0 0 
0 0 0 
0 0 0 
0 0 0 
0 0 0 
0 0 0 
0 0 0 
0 0 0 
0 0 0 
0 0 0 
0 0 0 
0 0 0 
0 0 0 
0 0 0 
0 0 0 
0 0 0 
0 0 0 
0 0 0 
0 0 0 
0 0 0 
0 0 0 
0 0 0 
0 0 0 
0 0 0 
0 0 0 
0 0 0 
0 0 0 
0 0 0 
0 0 0 
0 0 0 
0 0 0 
0 0 0 
0 0 0 
0 0 0 
0 0 0 
0 0 0 
0 0 0 
0 0 0 
0 0 0 
0 0 0 
0 0 0 
0 0 0 
0 0 0 
0 0 0 
0 0 0 
0 0 0 
0 0 0 
0 0 0 
0 0 0 
0 0 0 
0 0 0 
0 0 0 
0 0 0 
0 0 0 
0 0 0 
0 0 0 
0 0 0 
0 0 0 
0 0 0 
0 0 0 
0 0 0 
0 0 0 
0 0 0 
0 0 0 
0 0 0 
0 0 0 
0 0 0 
0 0 0 
0 0 0 
0 0 0 
0 0 0 
0 0 0 
0 0 0 
0 0 0 
0 0 0 
0 0 0 
0 0 0 
0 0 0 
0 0 0 
0 0 0 
0 0 0 
0 0 0 
0 0 0 
0 0 0 
0 0 0 
0 0 0 
0 0 0 
0 0 0 
0 0 0 
0 0 0 
0 0 0 
0 0 0 
0 0 0 
0 0 0 
0 0 0 
0 0 0 
0 0 0 
0 0 0 
0 0 0 
0 0 0 
0 0 0 
0 0 0 
0 0 0 
0 0 0 
0 0 0 
0 0 0 
0 0 0 
0 0 0 
0 0 0 
0 0 0 
0 0 0 
0 0 0 
0 0 0 
0 0 0 
0 0 0 
0 0 0 
0 0 0 
0 0 0 
0 0 0 
0 0 0 
0 0 0 
0 0 0 
0 0 0 
0 0 0 
0 0 0 
0 0 0 
0 0 0 
0 0 0 
0 0 0 
0 0 0 
0 0 0 
0 0 0 
0 0 0 
0 0 0 
0 0 0 
0 0 0 
0 0 0 
0 0 0 
0 0 0 
0 0 0 
0 0 0 
0 0 0 
0 0 0 
0 0 0 
0 0 0 
0 0 0 
0 0 0 
0 0 0 
0 0 0 
0 0 0 
0 0 0 
0 0 0 
0 0 0 
0 0 0 
0 0 0 
0 0 0 
0 0 0 
0 0 0 
0 0 0 
0 0 0 
0 0 0 
0 0 0 
0 0 0 
0 0 0 
0 0 0 
0 0 0 
0 0 0 
0 0 0 
0 0 0 
0 0 0 
0 0 0 
0 0 0 
0 0 0 
0 0 0 
0 0 0 
0 0 0 
0 0 0 
0 0 0 
0 0 0 
0 0 0 
0 0 0 
0 0 0 
0 0 0 
0 0 0 
0 0 0 
0 0 0 
0 0 0 
0 0 0 
0 0 0 
0 0 0 
0 0 0 
0 0 0 
0 0 0 
0 0 0 
0 0 0 
0 0 0 
0 0 0 
0 0 0 
0 0 0 
0 0 0 
0 0 0 
0 0 0 
0 0 0 
0 0 0 
0 0 0 
0 0 0 
0 0 0 
0 0 0 
0 0 0 
0 0 0 
0 0 0 
0 0 0 
0 0 0 
0 0 0 
0 0 0 
0 0 0 
0 0 0 
0 0 0 
0 0 0 
0 0 0 
0 0 0 
0 0 0 
0 0 0 
0 0 0 
0 0 0 
0 0 0 
0 0 0 
0 0 0 
0 0 0 
0 0 0 
0 0 0 
0 0 0 
0 0 0 
0 0 0 
0 0 0 
0 0 0 
0 0 0 
0 0 0 
0 0 0 
0 0 0 
0 0 0 
0 0 0 
0 0 0 
0 0 0 
0 0 0 
0 0 0 
0 0 0 
0 0 0 
0 0 0 
0 0 0 
0 0 0 
0 0 0 
0 0 0 
0 0 0 
0 0 0 
0 0 0 
0 0 0 
0 0 0 
0 0 0 
0 0 0 
0 0 0 
0 0 0 
0 0 0 
0 0 0 
0 0 0 
0 0 0 
0 0 0 
0 0 0 
0 0 0 
0 0 0 
0 0 0 
0 0 0 
0 0 0 
0 0 0 
0 0 0 
0 0 0 
0 0 0 
0 0 0 
0 0 0 
0 0 0 
0 0 0 
0 0 0 
0 0 0 
0 0 0 
0 0 0 
0 0 0 
0 0 0 
0 0 0 
0 0 0 
0 0 0 
0 0 0 
0 0 0 
0 0 0 
0 0 0 
0 0 0 
0 0 0 
0 0 0 
0 0 0 
0 0 0 
0 0 0 
0 0 0 
0 0 0 
0 0 0 
0 0 0 
0 0 0 
0 0 0 
0 0 0 
0 0 0 
0 0 0 
0 0 0 
0 0 0 
0 0 0 
0 0 0 
0 0 0 
0 0 0 
0 0 0 
0 0 0 
0 0 0 
0 0 0 
0 0 0 
0 0 0 
0 0 0 
0 0 0 
0 0 0 
0 0 0 
0 0 0 
0 0 0 
0 0 0 
0 0 0 
0 0 0 
0 0 0 
0 0 0 
0 0 0 
0 0 0 
0 0 0 
0 0 0 
0 0 0 
0 0 0 
0 0 0 
0 0 0 
0 0 0 
0 0 0 
0 0 0 
0 0 0 
0 0 0 
0 0 0 
0 0 0 
0 0 0 
0 0 0 
0 0 0 
0 0 0 
0 0 0 
0 0 0 
0 0 0 
0 0 0 
0 0 0 
0 0 0 
0 0 0 
0 0 0 
0 0 0 
0 0 0 
0 0 0 
0 0 0 
0 0 0 
0 0 0 
0 0 0 
0 0 0 
0 0 0 
0 0 0 
0 0 0 
0 0 0 
0 0 0 
0 0 0 
0 0 0 
0 0 0 
0 0 0 
0 0 0 
0 0 0 
0 0 0 
0 0 0 
0 0 0 
0 0 0 
0 0 0 
0 0 0 
0 0 0 
0 0 0 
0 0 0 
0 0 0 
0 0 0 
0 0 0 
0 0 0 
0 0 0 
0 0 0 
0 0 0 
0 0 0 
0 0 0 
0 0 0 
0 0 0 
0 0 0 
0 0 0 
0 0 0 
0 0 0 
0 0 0 
0 0 0 
0 0 0 
0 0 0 
0 0 0 
0 0 0 
0 0 0 
0 0 0 
0 0 0 
0 0 0 
0 0 0 
0 0 0 
0 0 0 
0 0 0 
0 0 0 
0 0 0 
0 0 0 
0 0 0 
0 0 0 
0 0 0 
0 0 0 
0 0 0 
0 0 0 
0 0 0 
0 0 0 
0 0 0 
0 0 0 
0 0 0 
0 0 0 
0 0 0 
0 0 0 
0 0 0 
0 0 0 
0 0 0 
0 0 0 
0 0 0 
0 0 0 
0 0 0 
0 0 0 
0 0 0 
0 0 0 
0 0 0 
0 0 0 
0 0 0 
0 0 0 
0 0 0 
0 0 0 
0 0 0 
0 0 0 
0 0 0 
0 0 0 
0 0 0 
0 0 0 
0 0 0 
0 0 0 
0 0 0 
0 0 0 
0 0 0 
0 0 0 
0 0 0 
0 0 0 
0 0 0 
0 0 0 
0 0 0 
0 0 0 
0 0 0 
0 0 0 
0 0 0 
0 0 0 
0 0 0 
0 0 0 
0 0 0 
0 0 0 
0 0 0 
0 0 0 
0 0 0 
0 0 0 
0 0 0 
0 0 0 
0 0 0 
0 0 0 
0 0 0 
0 0 0 
0 0 0 
0 0 0 
0 0 0 
0 0 0 
0 0 0 
0 0 0 
0 0 0 
0 0 0 
0 0 0 
0 0 0 
0 0 0 
0 0 0 
0 0 0 
0 0 0 
0 0 0 
0 0 0 
0 0 0 
0 0 0 
0 0 0 
0 0 0 
0 0 0 
0 0 0 
0 0 0 
0 0 0 
0 0 0 
0 0 0 
0 0 0 
0 0 0 
0 0 0 
0 0 0 
0 0 0 
0 0 0 
0 0 0 
0 0 0 
0 0 0 
0 0 0 
0 0 0 
0 0 0 
0 0 0 
0 0 0 
0 0 0 
0 0 0 
0 0 0 
0 0 0 
0 0 0 
0 0 0 
0 0 0 
0 0 0 
0 0 0 
0 0 0 
0 0 0 
0 0 0 
0 0 0 
0 0 0 
0 0 0 
0 0 0 
0 0 0 
0 0 0 
0 0 0 
0 0 0 
0 0 0 
0 0 0 
0 0 0 
0 0 0 
0 0 0 
0 0 0 
0 0 0 
0 0 0 
0 0 0 
0 0 0 
0 0 0 
0 0 0 
0 0 0 
0 0 0 
0 0 0 
0 0 0 
0 0 0 
0 0 0 
0 0 0 
0 0 0 
0 0 0 
0 0 0 
0 0 0 
0 0 0 
0 0 0 
0 0 0 
0 0 0 
0 0 0 
0 0 0 
0 0 0 
0 0 0 
0 0 0 
0 0 0 
0 0 0 
0 0 0 
0 0 0 
0 0 0 
0 0 0 
0 0 0 
0 0 0 
0 0 0 
0 0 0 
0 0 0 
0 0 0 
0 0 0 
0 0 0 
0 0 0 
0 0 0 
0 0 0 
0 0 0 
0 0 0 
0 0 0 
0 0 0 
0 0 0 
0 0 0 
0 0 0 
0 0 0 
0 0 0 
0 0 0 
0 0 0 
0 0 0 
0 0 0 
0 0 0 
0 0 0 
0 0 0 
0 0 0 
0 0 0 
0 0 0 
0 0 0 
0 0 0 
0 0 0 
0 0 0 
0 0 0 
0 0 0 
0 0 0 
0 0 0 
0 0 0 
0 0 0 
0 0 0 
0 0 0 
0 0 0 
0 0 0 
0 0 0 
0 0 0 
0 0 0 
0 0 0 
0 0 0 
0 0 0 
0 0 0 
0 0 0 
0 0 0 
0 0 0 
0 0 0 
0 0 0 
0 0 0 
0 0 0 
0 0 0 
0 0 0 
0 0 0 
0 0 0 
0 0 0 
0 0 0 
0 0 0 
0 0 0 
0 0 0 
0 0 0 
0 0 0 
0 0 0 
0 0 0 
0 0 0 
0 0 0 
0 0 0 
0 0 0 
0 0 0 
0 0 0 
0 0 0 
0 0 0 
0 0 0 
0 0 0 
0 0 0 
0 0 0 
0 0 0 
0 0 0 
0 0 0 
0 0 0 
0 0 0 
0 0 0 
0 0 0 
0 0 0 
0 0 0 
0 0 0 
0 0 0 
0 0 0 
0 0 0 
0 0 0 
0 0 0 
0 0 0 
0 0 0 
0 0 0 
0 0 0 
0 0 0 
0 0 0 
0 0 0 
0 0 0 
0 0 0 
0 0 0 
0 0 0 
0 0 0 
0 0 0 
0 0 0 
0 0 0 
0 0 0 
0 0 0 
0 0 0 
0 0 0 
0 0 0 
0 0 0 
0 0 0 
0 0 0 
0 0 0 
0 0 0 
0 0 0 
0 0 0 
0 0 0 
0 0 0 
0 0 0 
0 0 0 
0 0 0 
0 0 0 
0 0 0 
0 0 0 
0 0 0 
0 0 0 
0 0 0 
0 0 0 
0 0 0 
0 0 0 
0 0 0 
0 0 0 
0 0 0 
0 0 0 
0 0 0 
0 0 0 
0 0 0 
0 0 0 
0 0 0 
0 0 0 
0 0 0 
0 0 0 
0 0 0 
0 0 0 
0 0 0 
0 0 0 
0 0 0 
0 0 0 
0 0 0 
0 0 0 
0 0 0 
0 0 0 
0 0 0 
0 0 0 
0 0 0 
0 0 0 
0 0 0 
0 0 0 
0 0 0 
0 0 0 
0 0 0 
0 0 0 
0 0 0 
0 0 0 
0 0 0 
0 0 0 
0 0 0 
0 0 0 
0 0 0 
0 0 0 
0 0 0 
0 0 0 
0 0 0 
0 0 0 
0 0 0 
0 0 0 
0 0 0 
0 0 0 
0 0 0 
0 0 0 
0 0 0 
0 0 0 
0 0 0 
0 0 0 
0 0 0 
0 0 0 
0 0 0 
0 0 0 
0 0 0 
0 0 0 
0 0 0 
0 0 0 
0 0 0 
0 0 0 
0 0 0 
0 0 0 
0 0 0 
0 0 0 
0 0 0 
0 0 0 
0 0 0 
0 0 0 
0 0 0 
0 0 0 
0 0 0 
0 0 0 
0 0 0 
0 0 0 
0 0 0 
0 0 0 
0 0 0 
0 0 0 
0 0 0 
0 0 0 
0 0 0 
0 0 0 
0 0 0 
0 0 0 
0 0 0 
0 0 0 
0 0 0 
0 0 0 
0 0 0 
0 0 0 
0 0 0 
0 0 0 
0 0 0 
0 0 0 
0 0 0 
0 0 0 
0 0 0 
0 0 0 
0 0 0 
0 0 0 
0 0 0 
0 0 0 
0 0 0 
0 0 0 
0 0 0 
0 0 0 
0 0 0 
0 0 0 
0 0 0 
0 0 0 
0 0 0 
0 0 0 
0 0 0 
0 0 0 
0 0 0 
0 0 0 
0 0 0 
0 0 0 
0 0 0 
0 0 0 
0 0 0 
0 0 0 
0 0 0 
0 0 0 
0 0 0 
0 0 0 
0 0 0 
0 0 0 
0 0 0 
0 0 0 
0 0 0 
0 0 0 
0 0 0 
0 0 0 
0 0 0 
0 0 0 
0 0 0 
0 0 0 
0 0 0 
0 0 0 
0 0 0 
0 0 0 
0 0 0 
0 0 0 
0 0 0 
0 0 0 
0 0 0 
0 0 0 
0 0 0 
0 0 0 
0 0 0 
0 0 0 
0 0 0 
0 0 0 
0 0 0 
0 0 0 
0 0 0 
0 0 0 
0 0 0 
0 0 0 
0 0 0 
0 0 0 
0 0 0 
0 0 0 
0 0 0 
0 0 0 
0 0 0 
0 0 0 
0 0 0 
0 0 0 
0 0 0 
0 0 0 
0 0 0 
0 0 0 
0 0 0 
0 0 0 
0 0 0 
0 0 0 
0 0 0 
0 0 0 
0 0 0 
0 0 0 
0 0 0 
0 0 0 
0 0 0 
0 0 0 
0 0 0 
0 0 0 
0 0 0 
0 0 0 
0 0 0 
0 0 0 
0 0 0 
0 0 0 
0 0 0 
0 0 0 
0 0 0 
0 0 0 
0 0 0 
0 0 0 
0 0 0 
0 0 0 
0 0 0 
0 0 0 
0 0 0 
0 0 0 
0 0 0 
0 0 0 
0 0 0 
0 0 0 
0 0 0 
0 0 0 
0 0 0 
0 0 0 
0 0 0 
0 0 0 
0 0 0 
0 0 0 
0 0 0 
0 0 0 
0 0 0 
0 0 0 
0 0 0 
0 0 0 
0 0 0 
0 0 0 
0 0 0 
0 0 0 
0 0 0 
0 0 0 
0 0 0 
0 0 0 
0 0 0 
0 0 0 
0 0 0 
0 0 0 
0 0 0 
0 0 0 
0 0 0 
0 0 0 
0 0 0 
0 0 0 
0 0 0 
0 0 0 
0 0 0 
0 0 0 
0 0 0 
0 0 0 
0 0 0 
0 0 0 
0 0 0 
0 0 0 
0 0 0 
0 0 0 
0 0 0 
0 0 0 
0 0 0 
0 0 0 
0 0 0 
0 0 0 
0 0 0 
0 0 0 
0 0 0 
0 0 0 
0 0 0 
0 0 0 
0 0 0 
0 0 0 
0 0 0 
0 0 0 
0 0 0 
0 0 0 
0 0 0 
0 0 0 
0 0 0 
0 0 0 
0 0 0 
0 0 0 
0 0 0 
0 0 0 
0 0 0 
0 0 0 
0 0 0 
0 0 0 
0 0 0 
0 0 0 
0 0 0 
0 0 0 
0 0 0 
0 0 0 
0 0 0 
0 0 0 
0 0 0 
0 0 0 
0 0 0 
0 0 0 
0 0 0 
0 0 0 
0 0 0 
0 0 0 
0 0 0 
0 0 0 
0 0 0 
0 0 0 
0 0 0 
0 0 0 
0 0 0 
0 0 0 
0 0 0 
0 0 0 
0 0 0 
0 0 0 
0 0 0 
0 0 0 
0 0 0 
0 0 0 
0 0 0 
0 0 0 
0 0 0 
0 0 0 
0 0 0 
0 0 0 
0 0 0 
0 0 0 
0 0 0 
0 0 0 
0 0 0 
0 0 0 
0 0 0 
0 0 0 
0 0 0 
0 0 0 
0 0 0 
0 0 0 
0 0 0 
0 0 0 
0 0 0 
0 0 0 
0 0 0 
0 0 0 
0 0 0 
0 0 0 
0 0 0 
0 0 0 
0 0 0 
0 0 0 
0 0 0 
0 0 0 
0 0 0 
0 0 0 
0 0 0 
0 0 0 
0 0 0 
0 0 0 
0 0 0 
0 0 0 
0 0 0 
0 0 0 
0 0 0 
0 0 0 
0 0 0 
0 0 0 
0 0 0 
0 0 0 
0 0 0 
0 0 0 
0 0 0 
0 0 0 
0 0 0 
0 0 0 
0 0 0 
0 0 0 
0 0 0 
0 0 0 
0 0 0 
0 0 0 
0 0 0 
0 0 0 
0 0 0 
0 0 0 
0 0 0 
0 0 0 
0 0 0 
0 0 0 
0 0 0 
0 0 0 
0 0 0 
0 0 0 
0 0 0 
0 0 0 
0 0 0 
0 0 0 
0 0 0 
0 0 0 
0 0 0 
0 0 0 
0 0 0 
0 0 0 
0 0 0 
0 0 0 
0 0 0 
0 0 0 
0 0 0 
0 0 0 
0 0 0 
0 0 0 
0 0 0 
0 0 0 
0 0 0 
0 0 0 
0 0 0 
0 0 0 
0 0 0 
0 0 0 
0 0 0 
0 0 0 
0 0 0 
0 0 0 
0 0 0 
0 0 0 
0 0 0 
0 0 0 
0 0 0 
0 0 0 
0 0 0 
0 0 0 
0 0 0 
0 0 0 
0 0 0 
0 0 0 
0 0 0 
0 0 0 
0 0 0 
0 0 0 
0 0 0 
0 0 0 
0 0 0 
0 0 0 
0 0 0 
0 0 0 
0 0 0 
0 0 0 
0 0 0 
0 0 0 
0 0 0 
0 0 0 
0 0 0 
0 0 0 
0 0 0 
0 0 0 
0 0 0 
0 0 0 
0 0 0 
0 0 0 
0 0 0 
0 0 0 
0 0 0 
0 0 0 
0 0 0 
0 0 0 
0 0 0 
0 0 0 
0 0 0 
0 0 0 
0 0 0 
0 0 0 
0 0 0 
0 0 0 
0 0 0 
0 0 0 
0 0 0 
0 0 0 
0 0 0 
0 0 0 
0 0 0 
0 0 0 
0 0 0 
0 0 0 
0 0 0 
0 0 0 
0 0 0 
0 0 0 
0 0 0 
0 0 0 
0 0 0 
0 0 0 
0 0 0 
0 0 0 
0 0 0 
0 0 0 
0 0 0 
0 0 0 
0 0 0 
0 0 0 
0 0 0 
0 0 0 
0 0 0 
0 0 0 
0 0 0 
0 0 0 
0 0 0 
0 0 0 
0 0 0 
0 0 0 
0 0 0 
0 0 0 
0 0 0 
0 0 0 
0 0 0 
0 0 0 
0 0 0 
0 0 0 
0 0 0 
0 0 0 
0 0 0 
0 0 0 
0 0 0 
0 0 0 
0 0 0 
0 0 0 
0 0 0 
0 0 0 
0 0 0 
0 0 0 
0 0 0 
0 0 0 
0 0 0 
0 0 0 
0 0 0 
0 0 0 
0 0 0 
0 0 0 
0 0 0 
0 0 0 
0 0 0 
0 0 0 
0 0 0 
0 0 0 
0 0 0 
0 0 0 
0 0 0 
0 0 0 
0 0 0 
0 0 0 
0 0 0 
0 0 0 
0 0 0 
0 0 0 
0 0 0 
0 0 0 
0 0 0 
0 0 0 
0 0 0 
0 0 0 
0 0 0 
0 0 0 
0 0 0 
0 0 0 
0 0 0 
0 0 0 
0 0 0 
0 0 0 
0 0 0 
0 0 0 
0 0 0 
0 0 0 
0 0 0 
0 0 0 
0 0 0 
0 0 0 
0 0 0 
0 0 0 
0 0 0 
0 0 0 
0 0 0 
0 0 0 
0 0 0 
0 0 0 
0 0 0 
0 0 0 
0 0 0 
0 0 0 
0 0 0 
0 0 0 
0 0 0 
0 0 0 
0 0 0 
0 0 0 
0 0 0 
0 0 0 
0 0 0 
0 0 0 
0 0 0 
0 0 0 
0 0 0 
0 0 0 
0 0 0 
0 0 0 
0 0 0 
0 0 0 
0 0 0 
0 0 0 
0 0 0 
0 0 0 
0 0 0 
0 0 0 
0 0 0 
0 0 0 
0 0 0 
0 0 0 
0 0 0 
0 0 0 
0 0 0 
0 0 0 
0 0 0 
0 0 0 
0 0 0 
0 0 0 
0 0 0 
0 0 0 
0 0 0 
0 0 0 
0 0 0 
0 0 0 
0 0 0 
0 0 0 
0 0 0 
0 0 0 
0 0 0 
0 0 0 
0 0 0 
0 0 0 
0 0 0 
0 0 0 
0 0 0 
0 0 0 
0 0 0 
0 0 0 
0 0 0 
0 0 0 
0 0 0 
0 0 0 
0 0 0 
0 0 0 
0 0 0 
0 0 0 
0 0 0 
0 0 0 
0 0 0 
0 0 0 
0 0 0 
0 0 0 
0 0 0 
0 0 0 
0 0 0 
0 0 0 
0 0 0 
0 0 0 
0 0 0 
0 0 0 
0 0 0 
0 0 0 
0 0 0 
0 0 0 
0 0 0 
0 0 0 
0 0 0 
0 0 0 
0 0 0 
0 0 0 
0 0 0 
0 0 0 
0 0 0 
0 0 0 
0 0 0 
0 0 0 
0 0 0 
0 0 0 
0 0 0 
0 0 0 
0 0 0 
0 0 0 
0 0 0 
0 0 0 
0 0 0 
0 0 0 
0 0 0 
0 0 0 
0 0 0 
0 0 0 
0 0 0 
0 0 0 
0 0 0 
0 0 0 
0 0 0 
0 0 0 
0 0 0 
0 0 0 
0 0 0 
0 0 0 
0 0 0 
0 0 0 
0 0 0 
0 0 0 
0 0 0 
0 0 0 
0 0 0 
0 0 0 
0 0 0 
0 0 0 
0 0 0 
0 0 0 
0 0 0 
0 0 0 
0 0 0 
0 0 0 
0 0 0 
0 0 0 
0 0 0 
0 0 0 
0 0 0 
0 0 0 
0 0 0 
0 0 0 
0 0 0 
0 0 0 
0 0 0 
0 0 0 
0 0 0 
0 0 0 
0 0 0 
0 0 0 
0 0 0 
0 0 0 
0 0 0 
0 0 0 
0 0 0 
0 0 0 
0 0 0 
0 0 0 
0 0 0 
0 0 0 
0 0 0 
0 0 0 
0 0 0 
0 0 0 
0 0 0 
0 0 0 
0 0 0 
0 0 0 
0 0 0 
0 0 0 
0 0 0 
0 0 0 
0 0 0 
0 0 0 
0 0 0 
0 0 0 
0 0 0 
0 0 0 
0 0 0 
0 0 0 
0 0 0 
0 0 0 
0 0 0 
0 0 0 
0 0 0 
0 0 0 
0 0 0 
0 0 0 
0 0 0 
0 0 0 
0 0 0 
0 0 0 
0 0 0 
0 0 0 
0 0 0 
0 0 0 
0 0 0 
0 0 0 
0 0 0 
0 0 0 
0 0 0 
0 0 0 
0 0 0 
0 0 0 
0 0 0 
0 0 0 
0 0 0 
0 0 0 
0 0 0 
0 0 0 
0 0 0 
0 0 0 
0 0 0 
0 0 0 
0 0 0 
0 0 0 
0 0 0 
0 0 0 
0 0 0 
0 0 0 
0 0 0 
0 0 0 
0 0 0 
0 0 0 
0 0 0 
0 0 0 
0 0 0 
0 0 0 
0 0 0 
0 0 0 
0 0 0 
0 0 0 
0 0 0 
0 0 0 
0 0 0 
0 0 0 
0 0 0 
0 0 0 
0 0 0 
0 0 0 
0 0 0 
0 0 0 
0 0 0 
0 0 0 
0 0 0 
0 0 0 
0 0 0 
0 0 0 
0 0 0 
0 0 0 
0 0 0 
0 0 0 
0 0 0 
0 0 0 
0 0 0 
0 0 0 
0 0 0 
0 0 0 
0 0 0 
0 0 0 
0 0 0 
0 0 0 
0 0 0 
0 0 0 
0 0 0 
0 0 0 
0 0 0 
0 0 0 
0 0 0 
0 0 0 
0 0 0 
0 0 0 
0 0 0 
0 0 0 
0 0 0 
0 0 0 
0 0 0 
0 0 0 
0 0 0 
0 0 0 
0 0 0 
0 0 0 
0 0 0 
0 0 0 
0 0 0 
0 0 0 
0 0 0 
0 0 0 
0 0 0 
0 0 0 
0 0 0 
0 0 0 
0 0 0 
0 0 0 
0 0 0 
0 0 0 
0 0 0 
0 0 0 
0 0 0 
0 0 0 
0 0 0 
0 0 0 
0 0 0 
0 0 0 
0 0 0 
0 0 0 
0 0 0 
0 0 0 
0 0 0 
0 0 0 
0 0 0 
0 0 0 
0 0 0 
0 0 0 
0 0 0 
0 0 0 
0 0 0 
0 0 0 
0 0 0 
0 0 0 
0 0 0 
0 0 0 
0 0 0 
0 0 0 
0 0 0 
0 0 0 
0 0 0 
0 0 0 
0 0 0 
0 0 0 
0 0 0 
0 0 0 
0 0 0 
0 0 0 
0 0 0 
0 0 0 
0 0 0 
0 0 0 
0 0 0 
0 0 0 
0 0 0 
0 0 0 
0 0 0 
0 0 0 
0 0 0 
0 0 0 
0 0 0 
0 0 0 
0 0 0 
0 0 0 
0 0 0 
0 0 0 
0 0 0 
0 0 0 
0 0 0 
0 0 0 
0 0 0 
0 0 0 
0 0 0 
0 0 0 
0 0 0 
0 0 0 
0 0 0 
0 0 0 
0 0 0 
0 0 0 
0 0 0 
0 0 0 
0 0 0 
0 0 0 
0 0 0 
0 0 0 
0 0 0 
0 0 0 
0 0 0 
0 0 0 
0 0 0 
0 0 0 
0 0 0 
0 0 0 
0 0 0 
0 0 0 
0 0 0 
0 0 0 
0 0 0 
0 0 0 
0 0 0 
0 0 0 
0 0 0 
0 0 0 
0 0 0 
0 0 0 
0 0 0 
0 0 0 
0 0 0 
0 0 0 
0 0 0 
0 0 0 
0 0 0 
0 0 0 
0 0 0 
0 0 0 
0 0 0 
0 0 0 
0 0 0 
0 0 0 
0 0 0 
0 0 0 
0 0 0 
0 0 0 
0 0 0 
0 0 0 
0 0 0 
0 0 0 
0 0 0 
0 0 0 
0 0 0 
0 0 0 
0 0 0 
0 0 0 
0 0 0 
0 0 0 
0 0 0 
0 0 0 
0 0 0 
0 0 0 
0 0 0 
0 0 0 
0 0 0 
0 0 0 
0 0 0 
0 0 0 
0 0 0 
0 0 0 
0 0 0 
0 0 0 
0 0 0 
0 0 0 
0 0 0 
0 0 0 
0 0 0 
0 0 0 
0 0 0 
0 0 0 
0 0 0 
0 0 0 
0 0 0 
0 0 0 
0 0 0 
0 0 0 
0 0 0 
0 0 0 
0 0 0 
0 0 0 
0 0 0 
0 0 0 
0 0 0 
0 0 0 
0 0 0 
0 0 0 
0 0 0 
0 0 0 
0 0 0 
0 0 0 
0 0 0 
0 0 0 
0 0 0 
0 0 0 
0 0 0 
0 0 0 
0 0 0 
0 0 0 
0 0 0 
0 0 0 
0 0 0 
0 0 0 
0 0 0 
0 0 0 
0 0 0 
0 0 0 
0 0 0 
0 0 0 
0 0 0 
0 0 0 
0 0 0 
0 0 0 
0 0 0 
0 0 0 
0 0 0 
0 0 0 
0 0 0 
0 0 0 
0 0 0 
0 0 0 
0 0 0 
0 0 0 
0 0 0 
0 0 0 
0 0 0 
0 0 0 
0 0 0 
0 0 0 
0 0 0 
0 0 0 
0 0 0 
0 0 0 
0 0 0 
0 0 0 
0 0 0 
0 0 0 
0 0 0 
0 0 0 
0 0 0 
0 0 0 
0 0 0 
0 0 0 
0 0 0 
0 0 0 
0 0 0 
0 0 0 
0 0 0 
0 0 0 
0 0 0 
0 0 0 
0 0 0 
0 0 0 
0 0 0 
0 0 0 
0 0 0 
0 0 0 
0 0 0 
0 0 0 
0 0 0 
0 0 0 
0 0 0 
0 0 0 
0 0 0 
0 0 0 
0 0 0 
0 0 0 
0 0 0 
0 0 0 
0 0 0 
0 0 0 
0 0 0 
0 0 0 
0 0 0 
0 0 0 
0 0 0 
0 0 0 
0 0 0 
0 0 0 
0 0 0 
0 0 0 
0 0 0 
0 0 0 
0 0 0 
0 0 0 
0 0 0 
0 0 0 
0 0 0 
0 0 0 
0 0 0 
0 0 0 
0 0 0 
0 0 0 
0 0 0 
0 0 0 
0 0 0 
0 0 0 
0 0 0 
0 0 0 
0 0 0 
0 0 0 
0 0 0 
0 0 0 
0 0 0 
0 0 0 
0 0 0 
0 0 0 
0 0 0 
0 0 0 
0 0 0 
0 0 0 
0 0 0 
0 0 0 
0 0 0 
0 0 0 
0 0 0 
0 0 0 
0 0 0 
0 0 0 
0 0 0 
0 0 0 
0 0 0 
0 0 0 
0 0 0 
0 0 0 
0 0 0 
0 0 0 
0 0 0 
0 0 0 
0 0 0 
0 0 0 
0 0 0 
0 0 0 
0 0 0 
0 0 0 
0 0 0 
0 0 0 
0 0 0 
0 0 0 
0 0 0 
0 0 0 
0 0 0 
0 0 0 
0 0 0 
0 0 0 
0 0 0 
0 0 0 
0 0 0 
0 0 0 
0 0 0 
0 0 0 
0 0 0 
0 0 0 
0 0 0 
0 0 0 
0 0 0 
0 0 0 
0 0 0 
0 0 0 
0 0 0 
0 0 0 
0 0 0 
0 0 0 
0 0 0 
0 0 0 
0 0 0 
0 0 0 
0 0 0 
0 0 0 
0 0 0 
0 0 0 
0 0 0 
0 0 0 
0 0 0 
0 0 0 
0 0 0 
0 0 0 
0 0 0 
0 0 0 
0 0 0 
0 0 0 
0 0 0 
0 0 0 
0 0 0 
0 0 0 
0 0 0 
0 0 0 
0 0 0 
0 0 0 
0 0 0 
0 0 0 
0 0 0 
0 0 0 
0 0 0 
0 0 0 
0 0 0 
0 0 0 
0 0 0 
0 0 0 
0 0 0 
0 0 0 
0 0 0 
0 0 0 
0 0 0 
0 0 0 
0 0 0 
0 0 0 
0 0 0 
0 0 0 
0 0 0 
0 0 0 
0 0 0 
0 0 0 
0 0 0 
0 0 0 
0 0 0 
0 0 0 
0 0 0 
0 0 0 
0 0 0 
0 0 0 
0 0 0 
0 0 0 
0 0 0 
0 0 0 
0 0 0 
0 0 0 
0 0 0 
0 0 0 
0 0 0 
0 0 0 
0 0 0 
0 0 0 
0 0 0 
0 0 0 
0 0 0 
0 0 0 
0 0 0 
0 0 0 
0 0 0 
0 0 0 
0 0 0 
0 0 0 
0 0 0 
0 0 0 
0 0 0 
0 0 0 
0 0 0 
0 0 0 
0 0 0 
0 0 0 
0 0 0 
0 0 0 
0 0 0 
0 0 0 
0 0 0 
0 0 0 
0 0 0 
0 0 0 
0 0 0 
0 0 0 
0 0 0 
0 0 0 
0 0 0 
0 0 0 
0 0 0 
0 0 0 
0 0 0 
0 0 0 
0 0 0 
0 0 0 
0 0 0 
0 0 0 
0 0 0 
0 0 0 
0 0 0 
0 0 0 
0 0 0 
0 0 0 
0 0 0 
0 0 0 
0 0 0 
0 0 0 
0 0 0 
0 0 0 
0 0 0 
0 0 0 
0 0 0 
0 0 0 
0 0 0 
0 0 0 
0 0 0 
0 0 0 
0 0 0 
0 0 0 
0 0 0 
0 0 0 
0 0 0 
0 0 0 
0 0 0 
0 0 0 
0 0 0 
0 0 0 
0 0 0 
0 0 0 
0 0 0 
0 0 0 
0 0 0 
0 0 0 
0 0 0 
0 0 0 
0 0 0 
0 0 0 
0 0 0 
0 0 0 
0 0 0 
0 0 0 
0 0 0 
0 0 0 
0 0 0 
0 0 0 
0 0 0 
0 0 0 
0 0 0 
0 0 0 
0 0 0 
0 0 0 
0 0 0 
0 0 0 
0 0 0 
0 0 0 
0 0 0 
0 0 0 
0 0 0 
0 0 0 
0 0 0 
0 0 0 
0 0 0 
0 0 0 
0 0 0 
0 0 0 
0 0 0 
0 0 0 
0 0 0 
0 0 0 
0 0 0 
0 0 0 
0 0 0 
0 0 0 
0 0 0 
0 0 0 
0 0 0 
0 0 0 
0 0 0 
0 0 0 
0 0 0 
0 0 0 
0 0 0 
0 0 0 
0 0 0 
0 0 0 
0 0 0 
0 0 0 
0 0 0 
0 0 0 
0 0 0 
0 0 0 
0 0 0 
0 0 0 
0 0 0 
0 0 0 
0 0 0 
0 0 0 
0 0 0 
0 0 0 
0 0 0 
0 0 0 
0 0 0 
0 0 0 
0 0 0 
0 0 0 
0 0 0 
0 0 0 
0 0 0 
0 0 0 
0 0 0 
0 0 0 
0 0 0 
0 0 0 
0 0 0 
0 0 0 
0 0 0 
0 0 0 
0 0 0 
0 0 0 
0 0 0 
0 0 0 
0 0 0 
0 0 0 
0 0 0 
0 0 0 
0 0 0 
0 0 0 
0 0 0 
0 0 0 
0 0 0 
0 0 0 
0 0 0 
0 0 0 
0 0 0 
0 0 0 
0 0 0 
0 0 0 
0 0 0 
0 0 0 
0 0 0 
0 0 0 
0 0 0 
0 0 0 
0 0 0 
0 0 0 
0 0 0 
0 0 0 
0 0 0 
0 0 0 
0 0 0 
0 0 0 
0 0 0 
0 0 0 
0 0 0 
0 0 0 
0 0 0 
0 0 0 
0 0 0 
0 0 0 
0 0 0 
0 0 0 
0 0 0 
0 0 0 
0 0 0 
0 0 0 
0 0 0 
0 0 0 
0 0 0 
0 0 0 
0 0 0 
0 0 0 
0 0 0 
0 0 0 
0 0 0 
0 0 0 
0 0 0 
0 0 0 
0 0 0 
0 0 0 
0 0 0 
0 0 0 
0 0 0 
0 0 0 
0 0 0 
0 0 0 
0 0 0 
0 0 0 
0 0 0 
0 0 0 
0 0 0 
0 0 0 
0 0 0 
0 0 0 
0 0 0 
0 0 0 
0 0 0 
0 0 0 
0 0 0 
0 0 0 
0 0 0 
0 0 0 
0 0 0 
0 0 0 
0 0 0 
0 0 0 
0 0 0 
0 0 0 
0 0 0 
0 0 0 
0 0 0 
0 0 0 
0 0 0 
0 0 0 
0 0 0 
0 0 0 
0 0 0 
0 0 0 
0 0 0 
0 0 0 
0 0 0 
0 0 0 
0 0 0 
0 0 0 
0 0 0 
0 0 0 
0 0 0 
0 0 0 
0 0 0 
0 0 0 
0 0 0 
0 0 0 
0 0 0 
0 0 0 
0 0 0 
0 0 0 
0 0 0 
0 0 0 
0 0 0 
0 0 0 
0 0 0 
0 0 0 
0 0 0 
0 0 0 
0 0 0 
0 0 0 
0 0 0 
0 0 0 
0 0 0 
0 0 0 
0 0 0 
0 0 0 
0 0 0 
0 0 0 
0 0 0 
0 0 0 
0 0 0 
0 0 0 
0 0 0 
0 0 0 
0 0 0 
0 0 0 
0 0 0 
0 0 0 
0 0 0 
0 0 0 
0 0 0 
0 0 0 
0 0 0 
0 0 0 
0 0 0 
0 0 0 
0 0 0 
0 0 0 
0 0 0 
0 0 0 
0 0 0 
0 0 0 
0 0 0 
0 0 0 
0 0 0 
0 0 0 
0 0 0 
0 0 0 
0 0 0 
0 0 0 
0 0 0 
0 0 0 
0 0 0 
0 0 0 
0 0 0 
0 0 0 
0 0 0 
0 0 0 
0 0 0 
0 0 0 
0 0 0 
0 0 0 
0 0 0 
0 0 0 
0 0 0 
0 0 0 
0 0 0 
0 0 0 
0 0 0 
0 0 0 
0 0 0 
0 0 0 
0 0 0 
0 0 0 
0 0 0 
0 0 0 
0 0 0 
0 0 0 
0 0 0 
0 0 0 
0 0 0 
0 0 0 
0 0 0 
0 0 0 
0 0 0 
0 0 0 
0 0 0 
0 0 0 
0 0 0 
0 0 0 
0 0 0 
0 0 0 
0 0 0 
0 0 0 
0 0 0 
0 0 0 
0 0 0 
0 0 0 
0 0 0 
0 0 0 
0 0 0 
0 0 0 
0 0 0 
0 0 0 
0 0 0 
0 0 0 
0 0 0 
0 0 0 
0 0 0 
0 0 0 
0 0 0 
0 0 0 
0 0 0 
0 0 0 
0 0 0 
0 0 0 
0 0 0 
0 0 0 
0 0 0 
0 0 0 
0 0 0 
0 0 0 
0 0 0 
0 0 0 
0 0 0 
0 0 0 
0 0 0 
0 0 0 
0 0 0 
0 0 0 
0 0 0 
0 0 0 
0 0 0 
0 0 0 
0 0 0 
0 0 0 
0 0 0 
0 0 0 
0 0 0 
0 0 0 
0 0 0 
0 0 0 
0 0 0 
0 0 0 
0 0 0 
0 0 0 
0 0 0 
0 0 0 
0 0 0 
0 0 0 
0 0 0 
0 0 0 
0 0 0 
0 0 0 
0 0 0 
0 0 0 
0 0 0 
0 0 0 
0 0 0 
0 0 0 
0 0 0 
0 0 0 
0 0 0 
0 0 0 
0 0 0 
0 0 0 
0 0 0 
0 0 0 
0 0 0 
0 0 0 
0 0 0 
0 0 0 
0 0 0 
0 0 0 
0 0 0 
0 0 0 
0 0 0 
0 0 0 
0 0 0 
0 0 0 
0 0 0 
0 0 0 
0 0 0 
0 0 0 
0 0 0 
0 0 0 
0 0 0 
0 0 0 
0 0 0 
0 0 0 
0 0 0 
0 0 0 
0 0 0 
0 0 0 
0 0 0 
0 0 0 
0 0 0 
0 0 0 
0 0 0 
0 0 0 
0 0 0 
0 0 0 
0 0 0 
0 0 0 
0 0 0 
0 0 0 
0 0 0 
0 0 0 
0 0 0 
0 0 0 
0 0 0 
0 0 0 
0 0 0 
0 0 0 
0 0 0 
0 0 0 
0 0 0 
0 0 0 
0 0 0 
0 0 0 
0 0 0 
0 0 0 
0 0 0 
0 0 0 
0 0 0 
0 0 0 
0 0 0 
0 0 0 
0 0 0 
0 0 0 
0 0 0 
0 0 0 
0 0 0 
0 0 0 
0 0 0 
0 0 0 
0 0 0 
0 0 0 
0 0 0 
0 0 0 
0 0 0 
0 0 0 
0 0 0 
0 0 0 
0 0 0 
0 0 0 
0 0 0 
0 0 0 
0 0 0 
0 0 0 
0 0 0 
0 0 0 
0 0 0 
0 0 0 
0 0 0 
0 0 0 
0 0 0 
0 0 0 
0 0 0 
0 0 0 
0 0 0 
0 0 0 
0 0 0 
0 0 0 
0 0 0 
0 0 0 
0 0 0 
0 0 0 
0 0 0 
0 0 0 
0 0 0 
0 0 0 
0 0 0 
0 0 0 
0 0 0 
0 0 0 
0 0 0 
0 0 0 
0 0 0 
0 0 0 
0 0 0 
0 0 0 
0 0 0 
0 0 0 
0 0 0 
0 0 0 
0 0 0 
0 0 0 
0 0 0 
0 0 0 
0 0 0 
0 0 0 
0 0 0 
0 0 0 
0 0 0 
0 0 0 
0 0 0 
0 0 0 
0 0 0 
0 0 0 
0 0 0 
0 0 0 
0 0 0 
0 0 0 
0 0 0 
0 0 0 
0 0 0 
0 0 0 
0 0 0 
0 0 0 
0 0 0 
0 0 0 
0 0 0 
0 0 0 
0 0 0 
0 0 0 
0 0 0 
0 0 0 
0 0 0 
0 0 0 
0 0 0 
0 0 0 
0 0 0 
0 0 0 
0 0 0 
0 0 0 
0 0 0 
0 0 0 
0 0 0 
0 0 0 
0 0 0 
0 0 0 
0 0 0 
0 0 0 
0 0 0 
0 0 0 
0 0 0 
0 0 0 
0 0 0 
0 0 0 
0 0 0 
0 0 0 
0 0 0 
0 0 0 
0 0 0 
0 0 0 
0 0 0 
0 0 0 
0 0 0 
0 0 0 
0 0 0 
0 0 0 
0 0 0 
0 0 0 
0 0 0 
0 0 0 
0 0 0 
0 0 0 
0 0 0 
0 0 0 
0 0 0 
0 0 0 
0 0 0 
0 0 0 
0 0 0 
0 0 0 
0 0 0 
0 0 0 
0 0 0 
0 0 0 
0 0 0 
0 0 0 
0 0 0 
0 0 0 
0 0 0 
0 0 0 
0 0 0 
0 0 0 
0 0 0 
0 0 0 
0 0 0 
0 0 0 
0 0 0 
0 0 0 
0 0 0 
0 0 0 
0 0 0 
0 0 0 
0 0 0 
0 0 0 
0 0 0 
0 0 0 
0 0 0 
0 0 0 
0 0 0 
0 0 0 
0 0 0 
0 0 0 
0 0 0 
0 0 0 
0 0 0 
0 0 0 
0 0 0 
0 0 0 
0 0 0 
0 0 0 
0 0 0 
0 0 0 
0 0 0 
0 0 0 
0 0 0 
0 0 0 
0 0 0 
0 0 0 
0 0 0 
0 0 0 
0 0 0 
0 0 0 
0 0 0 
0 0 0 
0 0 0 
0 0 0 
0 0 0 
0 0 0 
0 0 0 
0 0 0 
0 0 0 
0 0 0 
0 0 0 
0 0 0 
0 0 0 
0 0 0 
0 0 0 
0 0 0 
0 0 0 
0 0 0 
0 0 0 
0 0 0 
0 0 0 
0 0 0 
0 0 0 
0 0 0 
0 0 0 
0 0 0 
0 0 0 
0 0 0 
0 0 0 
0 0 0 
0 0 0 
0 0 0 
0 0 0 
0 0 0 
0 0 0 
0 0 0 
0 0 0 
0 0 0 
0 0 0 
0 0 0 
0 0 0 
0 0 0 
0 0 0 
0 0 0 
0 0 0 
0 0 0 
0 0 0 
0 0 0 
0 0 0 
0 0 0 
0 0 0 
0 0 0 
0 0 0 
0 0 0 
0 0 0 
0 0 0 
0 0 0 
0 0 0 
0 0 0 
0 0 0 
0 0 0 
0 0 0 
0 0 0 
0 0 0 
0 0 0 
0 0 0 
0 0 0 
0 0 0 
0 0 0 
0 0 0 
0 0 0 
0 0 0 
0 0 0 
0 0 0 
0 0 0 
0 0 0 
0 0 0 
0 0 0 
0 0 0 
0 0 0 
0 0 0 
0 0 0 
0 0 0 
0 0 0 
0 0 0 
0 0 0 
0 0 0 
0 0 0 
0 0 0 
0 0 0 
0 0 0 
0 0 0 
0 0 0 
0 0 0 
0 0 0 
0 0 0 
0 0 0 
0 0 0 
0 0 0 
0 0 0 
0 0 0 
0 0 0 
0 0 0 
0 0 0 
0 0 0 
0 0 0 
0 0 0 
0 0 0 
0 0 0 
0 0 0 
0 0 0 
0 0 0 
0 0 0 
0 0 0 
0 0 0 
0 0 0 
0 0 0 
0 0 0 
0 0 0 
0 0 0 
0 0 0 
0 0 0 
0 0 0 
0 0 0 
0 0 0 
0 0 0 
0 0 0 
0 0 0 
0 0 0 
0 0 0 
0 0 0 
0 0 0 
0 0 0 
0 0 0 
0 0 0 
0 0 0 
0 0 0 
0 0 0 
0 0 0 
0 0 0 
0 0 0 
0 0 0 
0 0 0 
0 0 0 
0 0 0 
0 0 0 
0 0 0 
0 0 0 
0 0 0 
0 0 0 
0 0 0 
0 0 0 
0 0 0 
0 0 0 
0 0 0 
0 0 0 
0 0 0 
0 0 0 
0 0 0 
0 0 0 
0 0 0 
0 0 0 
0 0 0 
0 0 0 
0 0 0 
0 0 0 
0 0 0 
0 0 0 
0 0 0 
0 0 0 
0 0 0 
0 0 0 
0 0 0 
0 0 0 
0 0 0 
0 0 0 
0 0 0 
0 0 0 
0 0 0 
0 0 0 
0 0 0 
0 0 0 
0 0 0 
0 0 0 
0 0 0 
0 0 0 
0 0 0 
0 0 0 
0 0 0 
0 0 0 
0 0 0 
0 0 0 
0 0 0 
0 0 0 
0 0 0 
0 0 0 
0 0 0 
0 0 0 
0 0 0 
0 0 0 
0 0 0 
0 0 0 
0 0 0 
0 0 0 
0 0 0 
0 0 0 
0 0 0 
0 0 0 
0 0 0 
0 0 0 
0 0 0 
0 0 0 
0 0 0 
0 0 0 
0 0 0 
0 0 0 
0 0 0 
0 0 0 
0 0 0 
0 0 0 
0 0 0 
0 0 0 
0 0 0 
0 0 0 
0 0 0 
0 0 0 
0 0 0 
0 0 0 
0 0 0 
0 0 0 
0 0 0 
0 0 0 
0 0 0 
0 0 0 
0 0 0 
0 0 0 
0 0 0 
0 0 0 
0 0 0 
0 0 0 
0 0 0 
0 0 0 
0 0 0 
0 0 0 
0 0 0 
0 0 0 
0 0 0 
0 0 0 
0 0 0 
0 0 0 
0 0 0 
0 0 0 
0 0 0 
0 0 0 
0 0 0 
0 0 0 
0 0 0 
0 0 0 
0 0 0 
0 0 0 
0 0 0 
0 0 0 
0 0 0 
0 0 0 
0 0 0 
0 0 0 
0 0 0 
0 0 0 
0 0 0 
0 0 0 
0 0 0 
0 0 0 
0 0 0 
0 0 0 
0 0 0 
0 0 0 
0 0 0 
0 0 0 
0 0 0 
0 0 0 
0 0 0 
0 0 0 
0 0 0 
0 0 0 
0 0 0 
0 0 0 
0 0 0 
0 0 0 
0 0 0 
0 0 0 
0 0 0 
0 0 0 
0 0 0 
0 0 0 
0 0 0 
0 0 0 
0 0 0 
0 0 0 
0 0 0 
0 0 0 
0 0 0 
0 0 0 
0 0 0 
0 0 0 
0 0 0 
0 0 0 
0 0 0 
0 0 0 
0 0 0 
0 0 0 
0 0 0 
0 0 0 
0 0 0 
0 0 0 
0 0 0 
0 0 0 
0 0 0 
0 0 0 
0 0 0 
0 0 0 
0 0 0 
0 0 0 
0 0 0 
0 0 0 
0 0 0 
0 0 0 
0 0 0 
0 0 0 
0 0 0 
0 0 0 
0 0 0 
0 0 0 
0 0 0 
0 0 0 
0 0 0 
0 0 0 
0 0 0 
0 0 0 
0 0 0 
0 0 0 
0 0 0 
0 0 0 
0 0 0 
0 0 0 
0 0 0 
0 0 0 
0 0 0 
0 0 0 
0 0 0 
0 0 0 
0 0 0 
0 0 0 
0 0 0 
0 0 0 
0 0 0 
0 0 0 
0 0 0 
0 0 0 
0 0 0 
0 0 0 
0 0 0 
0 0 0 
0 0 0 
0 0 0 
0 0 0 
0 0 0 
0 0 0 
0 0 0 
0 0 0 
0 0 0 
0 0 0 
0 0 0 
0 0 0 
0 0 0 
0 0 0 
0 0 0 
0 0 0 
0 0 0 
0 0 0 
0 0 0 
0 0 0 
0 0 0 
0 0 0 
0 0 0 
0 0 0 
0 0 0 
0 0 0 
0 0 0 
0 0 0 
0 0 0 
0 0 0 
0 0 0 
0 0 0 
0 0 0 
0 0 0 
0 0 0 
0 0 0 
0 0 0 
0 0 0 
0 0 0 
0 0 0 
0 0 0 
0 0 0 
0 0 0 
0 0 0 
0 0 0 
0 0 0 
0 0 0 
0 0 0 
0 0 0 
0 0 0 
0 0 0 
0 0 0 
0 0 0 
0 0 0 
0 0 0 
0 0 0 
0 0 0 
0 0 0 
0 0 0 
0 0 0 
0 0 0 
0 0 0 
0 0 0 
0 0 0 
0 0 0 
0 0 0 
0 0 0 
0 0 0 
0 0 0 
0 0 0 
0 0 0 
0 0 0 
0 0 0 
0 0 0 
0 0 0 
0 0 0 
0 0 0 
0 0 0 
0 0 0 
0 0 0 
0 0 0 
0 0 0 
0 0 0 
0 0 0 
0 0 0 
0 0 0 
0 0 0 
0 0 0 
0 0 0 
0 0 0 
0 0 0 
0 0 0 
0 0 0 
0 0 0 
0 0 0 
0 0 0 
0 0 0 
0 0 0 
0 0 0 
0 0 0 
0 0 0 
0 0 0 
0 0 0 
0 0 0 
0 0 0 
0 0 0 
0 0 0 
0 0 0 
0 0 0 
0 0 0 
0 0 0 
0 0 0 
0 0 0 
0 0 0 
0 0 0 
0 0 0 
0 0 0 
0 0 0 
0 0 0 
0 0 0 
0 0 0 
0 0 0 
0 0 0 
0 0 0 
0 0 0 
0 0 0 
0 0 0 
0 0 0 
0 0 0 
0 0 0 
0 0 0 
0 0 0 
0 0 0 
0 0 0 
0 0 0 
0 0 0 
0 0 0 
0 0 0 
0 0 0 
0 0 0 
0 0 0 
0 0 0 
0 0 0 
0 0 0 
0 0 0 
0 0 0 
0 0 0 
0 0 0 
0 0 0 
0 0 0 
0 0 0 
0 0 0 
0 0 0 
0 0 0 
0 0 0 
0 0 0 
0 0 0 
0 0 0 
0 0 0 
0 0 0 
0 0 0 
0 0 0 
0 0 0 
0 0 0 
0 0 0 
0 0 0 
0 0 0 
0 0 0 
0 0 0 
0 0 0 
0 0 0 
0 0 0 
0 0 0 
0 0 0 
0 0 0 
0 0 0 
0 0 0 
0 0 0 
0 0 0 
0 0 0 
0 0 0 
0 0 0 
0 0 0 
0 0 0 
0 0 0 
0 0 0 
0 0 0 
0 0 0 
0 0 0 
0 0 0 
0 0 0 
0 0 0 
0 0 0 
0 0 0 
0 0 0 
0 0 0 
0 0 0 
0 0 0 
0 0 0 
0 0 0 
0 0 0 
0 0 0 
0 0 0 
0 0 0 
0 0 0 
0 0 0 
0 0 0 
0 0 0 
0 0 0 
0 0 0 
0 0 0 
0 0 0 
0 0 0 
0 0 0 
0 0 0 
0 0 0 
0 0 0 
0 0 0 
0 0 0 
0 0 0 
0 0 0 
0 0 0 
0 0 0 
0 0 0 
0 0 0 
0 0 0 
0 0 0 
0 0 0 
0 0 0 
0 0 0 
0 0 0 
0 0 0 
0 0 0 
0 0 0 
0 0 0 
0 0 0 
0 0 0 
0 0 0 
0 0 0 
0 0 0 
0 0 0 
0 0 0 
0 0 0 
0 0 0 
0 0 0 
0 0 0 
0 0 0 
0 0 0 
0 0 0 
0 0 0 
0 0 0 
0 0 0 
0 0 0 
0 0 0 
0 0 0 
0 0 0 
0 0 0 
0 0 0 
0 0 0 
0 0 0 
0 0 0 
0 0 0 
0 0 0 
0 0 0 
0 0 0 
0 0 0 
0 0 0 
0 0 0 
0 0 0 
0 0 0 
0 0 0 
0 0 0 
0 0 0 
0 0 0 
0 0 0 
0 0 0 
0 0 0 
0 0 0 
0 0 0 
0 0 0 
0 0 0 
0 0 0 
0 0 0 
0 0 0 
0 0 0 
0 0 0 
0 0 0 
0 0 0 
0 0 0 
0 0 0 
0 0 0 
0 0 0 
0 0 0 
0 0 0 
0 0 0 
0 0 0 
0 0 0 
0 0 0 
0 0 0 
0 0 0 
0 0 0 
0 0 0 
0 0 0 
0 0 0 
0 0 0 
0 0 0 
0 0 0 
0 0 0 
0 0 0 
0 0 0 
0 0 0 
0 0 0 
0 0 0 
0 0 0 
0 0 0 
0 0 0 
0 0 0 
0 0 0 
0 0 0 
0 0 0 
0 0 0 
0 0 0 
0 0 0 
0 0 0 
0 0 0 
0 0 0 
0 0 0 
0 0 0 
0 0 0 
0 0 0 
0 0 0 
0 0 0 
0 0 0 
0 0 0 
0 0 0 
0 0 0 
0 0 0 
0 0 0 
0 0 0 
0 0 0 
0 0 0 
0 0 0 
0 0 0 
0 0 0 
0 0 0 
0 0 0 
0 0 0 
0 0 0 
0 0 0 
0 0 0 
0 0 0 
0 0 0 
0 0 0 
0 0 0 
0 0 0 
0 0 0 
0 0 0 
0 0 0 
0 0 0 
0 0 0 
0 0 0 
0 0 0 
0 0 0 
0 0 0 
0 0 0 
0 0 0 
0 0 0 
0 0 0 
0 0 0 
0 0 0 
0 0 0 
0 0 0 
0 0 0 
0 0 0 
0 0 0 
0 0 0 
0 0 0 
0 0 0 
0 0 0 
0 0 0 
0 0 0 
0 0 0 
0 0 0 
0 0 0 
0 0 0 
0 0 0 
0 0 0 
0 0 0 
0 0 0 
0 0 0 
0 0 0 
0 0 0 
0 0 0 
0 0 0 
0 0 0 
0 0 0 
0 0 0 
0 0 0 
0 0 0 
0 0 0 
0 0 0 
0 0 0 
0 0 0 
0 0 0 
0 0 0 
0 0 0 
0 0 0 
0 0 0 
0 0 0 
0 0 0 
0 0 0 
0 0 0 
0 0 0 
0 0 0 
0 0 0 
0 0 0 
0 0 0 
0 0 0 
0 0 0 
0 0 0 
0 0 0 
0 0 0 
0 0 0 
0 0 0 
0 0 0 
0 0 0 
0 0 0 
0 0 0 
0 0 0 
0 0 0 
0 0 0 
0 0 0 
0 0 0 
0 0 0 
0 0 0 
0 0 0 
0 0 0 
0 0 0 
0 0 0 
0 0 0 
0 0 0 
0 0 0 
0 0 0 
0 0 0 
0 0 0 
0 0 0 
0 0 0 
0 0 0 
0 0 0 
0 0 0 
0 0 0 
0 0 0 
0 0 0 
0 0 0 
0 0 0 
0 0 0 
0 0 0 
0 0 0 
0 0 0 
0 0 0 
0 0 0 
0 0 0 
0 0 0 
0 0 0 
0 0 0 
0 0 0 
0 0 0 
0 0 0 
0 0 0 
0 0 0 
0 0 0 
0 0 0 
0 0 0 
0 0 0 
0 0 0 
0 0 0 
0 0 0 
0 0 0 
0 0 0 
0 0 0 
0 0 0 
0 0 0 
0 0 0 
0 0 0 
0 0 0 
0 0 0 
0 0 0 
0 0 0 
0 0 0 
0 0 0 
0 0 0 
0 0 0 
0 0 0 
0 0 0 
0 0 0 
0 0 0 
0 0 0 
0 0 0 
0 0 0 
0 0 0 
0 0 0 
0 0 0 
0 0 0 
0 0 0 
0 0 0 
0 0 0 
0 0 0 
0 0 0 
0 0 0 
0 0 0 
0 0 0 
0 0 0 
0 0 0 
0 0 0 
0 0 0 
0 0 0 
0 0 0 
0 0 0 
0 0 0 
0 0 0 
0 0 0 
0 0 0 
0 0 0 
0 0 0 
0 0 0 
0 0 0 
0 0 0 
0 0 0 
0 0 0 
0 0 0 
0 0 0 
0 0 0 
0 0 0 
0 0 0 
0 0 0 
0 0 0 
0 0 0 
0 0 0 
0 0 0 
0 0 0 
0 0 0 
0 0 0 
0 0 0 
0 0 0 
0 0 0 
0 0 0 
0 0 0 
0 0 0 
0 0 0 
0 0 0 
0 0 0 
0 0 0 
0 0 0 
0 0 0 
0 0 0 
0 0 0 
0 0 0 
0 0 0 
0 0 0 
0 0 0 
0 0 0 
0 0 0 
0 0 0 
0 0 0 
0 0 0 
0 0 0 
0 0 0 
0 0 0 
0 0 0 
0 0 0 
0 0 0 
0 0 0 
0 0 0 
0 0 0 
0 0 0 
0 0 0 
0 0 0 
0 0 0 
0 0 0 
0 0 0 
0 0 0 
0 0 0 
0 0 0 
0 0 0 
0 0 0 
0 0 0 
0 0 0 
0 0 0 
0 0 0 
0 0 0 
0 0 0 
0 0 0 
0 0 0 
0 0 0 
0 0 0 
0 0 0 
0 0 0 
0 0 0 
0 0 0 
0 0 0 
0 0 0 
0 0 0 
0 0 0 
0 0 0 
0 0 0 
0 0 0 
0 0 0 
0 0 0 
0 0 0 
0 0 0 
0 0 0 
0 0 0 
0 0 0 
0 0 0 
0 0 0 
0 0 0 
0 0 0 
0 0 0 
0 0 0 
0 0 0 
0 0 0 
0 0 0 
0 0 0 
0 0 0 
0 0 0 
0 0 0 
0 0 0 
0 0 0 
0 0 0 
0 0 0 
0 0 0 
0 0 0 
0 0 0 
0 0 0 
0 0 0 
0 0 0 
0 0 0 
0 0 0 
0 0 0 
0 0 0 
0 0 0 
0 0 0 
0 0 0 
0 0 0 
0 0 0 
0 0 0 
0 0 0 
0 0 0 
0 0 0 
0 0 0 
0 0 0 
0 0 0 
0 0 0 
0 0 0 
0 0 0 
0 0 0 
0 0 0 
0 0 0 
0 0 0 
0 0 0 
0 0 0 
0 0 0 
0 0 0 
0 0 0 
0 0 0 
0 0 0 
0 0 0 
0 0 0 
0 0 0 
0 0 0 
0 0 0 
0 0 0 
0 0 0 
0 0 0 
0 0 0 
0 0 0 
0 0 0 
0 0 0 
0 0 0 
0 0 0 
0 0 0 
0 0 0 
0 0 0 
0 0 0 
0 0 0 
0 0 0 
0 0 0 
0 0 0 
0 0 0 
0 0 0 
0 0 0 
0 0 0 
0 0 0 
0 0 0 
0 0 0 
0 0 0 
0 0 0 
0 0 0 
0 0 0 
0 0 0 
0 0 0 
0 0 0 
0 0 0 
0 0 0 
0 0 0 
0 0 0 
0 0 0 
0 0 0 
0 0 0 
0 0 0 
0 0 0 
0 0 0 
0 0 0 
0 0 0 
0 0 0 
0 0 0 
0 0 0 
0 0 0 
0 0 0 
0 0 0 
0 0 0 
0 0 0 
0 0 0 
0 0 0 
0 0 0 
0 0 0 
0 0 0 
0 0 0 
0 0 0 
0 0 0 
0 0 0 
0 0 0 
0 0 0 
0 0 0 
0 0 0 
0 0 0 
0 0 0 
0 0 0 
0 0 0 
0 0 0 
0 0 0 
0 0 0 
0 0 0 
0 0 0 
0 0 0 
0 0 0 
0 0 0 
0 0 0 
0 0 0 
0 0 0 
0 0 0 
0 0 0 
0 0 0 
0 0 0 
0 0 0 
0 0 0 
0 0 0 
0 0 0 
0 0 0 
0 0 0 
0 0 0 
0 0 0 
0 0 0 
0 0 0 
0 0 0 
0 0 0 
0 0 0 
0 0 0 
0 0 0 
0 0 0 
0 0 0 
0 0 0 
0 0 0 
0 0 0 
0 0 0 
0 0 0 
0 0 0 
0 0 0 
0 0 0 
0 0 0 
0 0 0 
0 0 0 
0 0 0 
0 0 0 
0 0 0 
0 0 0 
0 0 0 
0 0 0 
0 0 0 
0 0 0 
0 0 0 
0 0 0 
0 0 0 
0 0 0 
0 0 0 
0 0 0 
0 0 0 
0 0 0 
0 0 0 
0 0 0 
0 0 0 
0 0 0 
0 0 0 
0 0 0 
0 0 0 
0 0 0 
0 0 0 
0 0 0 
0 0 0 
0 0 0 
0 0 0 
0 0 0 
0 0 0 
0 0 0 
0 0 0 
0 0 0 
0 0 0 
0 0 0 
0 0 0 
0 0 0 
0 0 0 
0 0 0 
0 0 0 
0 0 0 
0 0 0 
0 0 0 
0 0 0 
0 0 0 
0 0 0 
0 0 0 
0 0 0 
0 0 0 
0 0 0 
0 0 0 
0 0 0 
0 0 0 
0 0 0 
0 0 0 
0 0 0 
0 0 0 
0 0 0 
0 0 0 
0 0 0 
0 0 0 
0 0 0 
0 0 0 
0 0 0 
0 0 0 
0 0 0 
0 0 0 
0 0 0 
0 0 0 
0 0 0 
0 0 0 
0 0 0 
0 0 0 
0 0 0 
0 0 0 
0 0 0 
0 0 0 
0 0 0 
0 0 0 
0 0 0 
0 0 0 
0 0 0 
0 0 0 
0 0 0 
0 0 0 
0 0 0 
0 0 0 
0 0 0 
0 0 0 
0 0 0 
0 0 0 
0 0 0 
0 0 0 
0 0 0 
0 0 0 
0 0 0 
0 0 0 
0 0 0 
0 0 0 
0 0 0 
0 0 0 
0 0 0 
0 0 0 
0 0 0 
0 0 0 
0 0 0 
0 0 0 
0 0 0 
0 0 0 
0 0 0 
0 0 0 
0 0 0 
0 0 0 
0 0 0 
0 0 0 
0 0 0 
0 0 0 
0 0 0 
0 0 0 
0 0 0 
0 0 0 
0 0 0 
0 0 0 
0 0 0 
0 0 0 
0 0 0 
0 0 0 
0 0 0 
0 0 0 
0 0 0 
0 0 0 
0 0 0 
0 0 0 
0 0 0 
0 0 0 
0 0 0 
0 0 0 
0 0 0 
0 0 0 
0 0 0 
0 0 0 
0 0 0 
0 0 0 
0 0 0 
0 0 0 
0 0 0 
0 0 0 
0 0 0 
0 0 0 
0 0 0 
0 0 0 
0 0 0 
0 0 0 
0 0 0 
0 0 0 
0 0 0 
0 0 0 
0 0 0 
0 0 0 
0 0 0 
0 0 0 
0 0 0 
0 0 0 
0 0 0 
0 0 0 
0 0 0 
0 0 0 
0 0 0 
0 0 0 
0 0 0 
0 0 0 
0 0 0 
0 0 0 
0 0 0 
0 0 0 
0 0 0 
0 0 0 
0 0 0 
0 0 0 
0 0 0 
0 0 0 
0 0 0 
0 0 0 
0 0 0 
0 0 0 
0 0 0 
0 0 0 
0 0 0 
0 0 0 
0 0 0 
0 0 0 
0 0 0 
0 0 0 
0 0 0 
0 0 0 
0 0 0 
0 0 0 
0 0 0 
0 0 0 
0 0 0 
0 0 0 
0 0 0 
0 0 0 
0 0 0 
0 0 0 
0 0 0 
0 0 0 
0 0 0 
0 0 0 
0 0 0 
0 0 0 
0 0 0 
0 0 0 
0 0 0 
0 0 0 
0 0 0 
0 0 0 
0 0 0 
0 0 0 
0 0 0 
0 0 0 
0 0 0 
0 0 0 
0 0 0 
0 0 0 
0 0 0 
0 0 0 
0 0 0 
0 0 0 
0 0 0 
0 0 0 
0 0 0 
0 0 0 
0 0 0 
0 0 0 
0 0 0 
0 0 0 
0 0 0 
0 0 0 
0 0 0 
0 0 0 
0 0 0 
0 0 0 
0 0 0 
0 0 0 
0 0 0 
0 0 0 
0 0 0 
0 0 0 
0 0 0 
0 0 0 
0 0 0 
0 0 0 
0 0 0 
0 0 0 
0 0 0 
0 0 0 
0 0 0 
0 0 0 
0 0 0 
0 0 0 
0 0 0 
0 0 0 
0 0 0 
0 0 0 
0 0 0 
0 0 0 
0 0 0 
0 0 0 
0 0 0 
0 0 0 
0 0 0 
0 0 0 
0 0 0 
0 0 0 
0 0 0 
0 0 0 
0 0 0 
0 0 0 
0 0 0 
0 0 0 
0 0 0 
0 0 0 
0 0 0 
0 0 0 
0 0 0 
0 0 0 
0 0 0 
0 0 0 
0 0 0 
0 0 0 
0 0 0 
0 0 0 
0 0 0 
0 0 0 
0 0 0 
0 0 0 
0 0 0 
0 0 0 
0 0 0 
0 0 0 
0 0 0 
0 0 0 
0 0 0 
0 0 0 
0 0 0 
0 0 0 
0 0 0 
0 0 0 
0 0 0 
0 0 0 
0 0 0 
0 0 0 
0 0 0 
0 0 0 
0 0 0 
0 0 0 
0 0 0 
0 0 0 
0 0 0 
0 0 0 
0 0 0 
0 0 0 
0 0 0 
0 0 0 
0 0 0 
0 0 0 
0 0 0 
0 0 0 
0 0 0 
0 0 0 
0 0 0 
0 0 0 
0 0 0 
0 0 0 
0 0 0 
0 0 0 
0 0 0 
0 0 0 
0 0 0 
0 0 0 
0 0 0 
0 0 0 
0 0 0 
0 0 0 
0 0 0 
0 0 0 
0 0 0 
0 0 0 
0 0 0 
0 0 0 
0 0 0 
0 0 0 
0 0 0 
0 0 0 
0 0 0 
0 0 0 
0 0 0 
0 0 0 
0 0 0 
0 0 0 
0 0 0 
0 0 0 
0 0 0 
0 0 0 
0 0 0 
0 0 0 
0 0 0 
0 0 0 
0 0 0 
0 0 0 
0 0 0 
0 0 0 
0 0 0 
0 0 0 
0 0 0 
0 0 0 
0 0 0 
0 0 0 
0 0 0 
0 0 0 
0 0 0 
0 0 0 
0 0 0 
0 0 0 
0 0 0 
0 0 0 
0 0 0 
0 0 0 
0 0 0 
0 0 0 
0 0 0 
0 0 0 
0 0 0 
0 0 0 
0 0 0 
0 0 0 
0 0 0 
0 0 0 
0 0 0 
0 0 0 
0 0 0 
0 0 0 
0 0 0 
0 0 0 
0 0 0 
0 0 0 
0 0 0 
0 0 0 
0 0 0 
0 0 0 
0 0 0 
0 0 0 
0 0 0 
0 0 0 
0 0 0 
0 0 0 
0 0 0 
0 0 0 
0 0 0 
0 0 0 
0 0 0 
0 0 0 
0 0 0 
0 0 0 
0 0 0 
0 0 0 
0 0 0 
0 0 0 
0 0 0 
0 0 0 
0 0 0 
0 0 0 
0 0 0 
0 0 0 
0 0 0 
0 0 0 
0 0 0 
0 0 0 
0 0 0 
0 0 0 
0 0 0 
0 0 0 
0 0 0 
0 0 0 
0 0 0 
0 0 0 
0 0 0 
0 0 0 
0 0 0 
0 0 0 
0 0 0 
0 0 0 
0 0 0 
0 0 0 
0 0 0 
0 0 0 
0 0 0 
0 0 0 
0 0 0 
0 0 0 
0 0 0 
0 0 0 
0 0 0 
0 0 0 
0 0 0 
0 0 0 
0 0 0 
0 0 0 
0 0 0 
0 0 0 
0 0 0 
0 0 0 
0 0 0 
0 0 0 
0 0 0 
0 0 0 
0 0 0 
0 0 0 
0 0 0 
0 0 0 
0 0 0 
0 0 0 
0 0 0 
0 0 0 
0 0 0 
0 0 0 
0 0 0 
0 0 0 
0 0 0 
0 0 0 
0 0 0 
0 0 0 
0 0 0 
0 0 0 
0 0 0 
0 0 0 
0 0 0 
0 0 0 
0 0 0 
0 0 0 
0 0 0 
0 0 0 
0 0 0 
0 0 0 
0 0 0 
0 0 0 
0 0 0 
0 0 0 
0 0 0 
0 0 0 
0 0 0 
0 0 0 
0 0 0 
0 0 0 
0 0 0 
0 0 0 
0 0 0 
0 0 0 
0 0 0 
0 0 0 
0 0 0 
0 0 0 
0 0 0 
0 0 0 
0 0 0 
0 0 0 
0 0 0 
0 0 0 
0 0 0 
0 0 0 
0 0 0 
0 0 0 
0 0 0 
0 0 0 
0 0 0 
0 0 0 
0 0 0 
0 0 0 
0 0 0 
0 0 0 
0 0 0 
0 0 0 
0 0 0 
0 0 0 
0 0 0 
0 0 0 
0 0 0 
0 0 0 
0 0 0 
0 0 0 
0 0 0 
0 0 0 
0 0 0 
0 0 0 
0 0 0 
0 0 0 
0 0 0 
0 0 0 
0 0 0 
0 0 0 
0 0 0 
0 0 0 
0 0 0 
0 0 0 
0 0 0 
0 0 0 
0 0 0 
0 0 0 
0 0 0 
0 0 0 
0 0 0 
0 0 0 
0 0 0 
0 0 0 
0 0 0 
0 0 0 
0 0 0 
0 0 0 
0 0 0 
0 0 0 
0 0 0 
0 0 0 
0 0 0 
0 0 0 
0 0 0 
0 0 0 
0 0 0 
0 0 0 
0 0 0 
0 0 0 
0 0 0 
0 0 0 
0 0 0 
0 0 0 
0 0 0 
0 0 0 
0 0 0 
0 0 0 
0 0 0 
0 0 0 
0 0 0 
0 0 0 
0 0 0 
0 0 0 
0 0 0 
0 0 0 
0 0 0 
0 0 0 
0 0 0 
0 0 0 
0 0 0 
0 0 0 
0 0 0 
0 0 0 
0 0 0 
0 0 0 
0 0 0 
0 0 0 
0 0 0 
0 0 0 
0 0 0 
0 0 0 
0 0 0 
0 0 0 
0 0 0 
0 0 0 
0 0 0 
0 0 0 
0 0 0 
0 0 0 
0 0 0 
0 0 0 
0 0 0 
0 0 0 
0 0 0 
0 0 0 
0 0 0 
0 0 0 
0 0 0 
0 0 0 
0 0 0 
0 0 0 
0 0 0 
0 0 0 
0 0 0 
0 0 0 
0 0 0 
0 0 0 
0 0 0 
0 0 0 
0 0 0 
0 0 0 
0 0 0 
0 0 0 
0 0 0 
0 0 0 
0 0 0 
0 0 0 
0 0 0 
0 0 0 
0 0 0 
0 0 0 
0 0 0 
0 0 0 
0 0 0 
0 0 0 
0 0 0 
0 0 0 
0 0 0 
0 0 0 
0 0 0 
0 0 0 
0 0 0 
0 0 0 
0 0 0 
0 0 0 
0 0 0 
0 0 0 
0 0 0 
0 0 0 
0 0 0 
0 0 0 
0 0 0 
0 0 0 
0 0 0 
0 0 0 
0 0 0 
0 0 0 
0 0 0 
0 0 0 
0 0 0 
0 0 0 
0 0 0 
0 0 0 
0 0 0 
0 0 0 
0 0 0 
0 0 0 
0 0 0 
0 0 0 
0 0 0 
0 0 0 
0 0 0 
0 0 0 
0 0 0 
0 0 0 
0 0 0 
0 0 0 
0 0 0 
0 0 0 
0 0 0 
0 0 0 
0 0 0 
0 0 0 
0 0 0 
0 0 0 
0 0 0 
0 0 0 
0 0 0 
0 0 0 
0 0 0 
0 0 0 
0 0 0 
0 0 0 
0 0 0 
0 0 0 
0 0 0 
0 0 0 
0 0 0 
0 0 0 
0 0 0 
0 0 0 
0 0 0 
0 0 0 
0 0 0 
0 0 0 
0 0 0 
0 0 0 
0 0 0 
0 0 0 
0 0 0 
0 0 0 
0 0 0 
0 0 0 
0 0 0 
0 0 0 
0 0 0 
0 0 0 
0 0 0 
0 0 0 
0 0 0 
0 0 0 
0 0 0 
0 0 0 
0 0 0 
0 0 0 
0 0 0 
0 0 0 
0 0 0 
0 0 0 
0 0 0 
0 0 0 
0 0 0 
0 0 0 
0 0 0 
0 0 0 
0 0 0 
0 0 0 
0 0 0 
0 0 0 
0 0 0 
0 0 0 
0 0 0 
0 0 0 
0 0 0 
0 0 0 
0 0 0 
0 0 0 
0 0 0 
0 0 0 
0 0 0 
0 0 0 
0 0 0 
0 0 0 
0 0 0 
0 0 0 
0 0 0 
0 0 0 
0 0 0 
0 0 0 
0 0 0 
0 0 0 
0 0 0 
0 0 0 
0 0 0 
0 0 0 
0 0 0 
0 0 0 
0 0 0 
0 0 0 
0 0 0 
0 0 0 
0 0 0 
0 0 0 
0 0 0 
0 0 0 
0 0 0 
0 0 0 
0 0 0 
0 0 0 
0 0 0 
0 0 0 
0 0 0 
0 0 0 
0 0 0 
0 0 0 
0 0 0 
0 0 0 
0 0 0 
0 0 0 
0 0 0 
0 0 0 
0 0 0 
0 0 0 
0 0 0 
0 0 0 
0 0 0 
0 0 0 
0 0 0 
0 0 0 
0 0 0 
0 0 0 
0 0 0 
0 0 0 
0 0 0 
0 0 0 
0 0 0 
0 0 0 
0 0 0 
0 0 0 
0 0 0 
0 0 0 
0 0 0 
0 0 0 
0 0 0 
0 0 0 
0 0 0 
0 0 0 
0 0 0 
0 0 0 
0 0 0 
0 0 0 
0 0 0 
0 0 0 
0 0 0 
0 0 0 
0 0 0 
0 0 0 
0 0 0 
0 0 0 
0 0 0 
0 0 0 
0 0 0 
0 0 0 
0 0 0 
0 0 0 
0 0 0 
0 0 0 
0 0 0 
0 0 0 
0 0 0 
0 0 0 
0 0 0 
0 0 0 
0 0 0 
0 0 0 
0 0 0 
0 0 0 
0 0 0 
0 0 0 
0 0 0 
0 0 0 
0 0 0 
0 0 0 
0 0 0 
0 0 0 
0 0 0 
0 0 0 
0 0 0 
0 0 0 
0 0 0 
0 0 0 
0 0 0 
0 0 0 
0 0 0 
0 0 0 
0 0 0 
0 0 0 
0 0 0 
0 0 0 
0 0 0 
0 0 0 
0 0 0 
0 0 0 
0 0 0 
0 0 0 
0 0 0 
0 0 0 
0 0 0 
0 0 0 
0 0 0 
0 0 0 
0 0 0 
0 0 0 
0 0 0 
0 0 0 
0 0 0 
0 0 0 
0 0 0 
0 0 0 
0 0 0 
0 0 0 
0 0 0 
0 0 0 
0 0 0 
0 0 0 
0 0 0 
0 0 0 
0 0 0 
0 0 0 
0 0 0 
0 0 0 
0 0 0 
0 0 0 
0 0 0 
0 0 0 
0 0 0 
0 0 0 
0 0 0 
0 0 0 
0 0 0 
0 0 0 
0 0 0 
0 0 0 
0 0 0 
0 0 0 
0 0 0 
0 0 0 
0 0 0 
0 0 0 
0 0 0 
0 0 0 
0 0 0 
0 0 0 
0 0 0 
0 0 0 
0 0 0 
0 0 0 
0 0 0 
0 0 0 
0 0 0 
0 0 0 
0 0 0 
0 0 0 
0 0 0 
0 0 0 
0 0 0 
0 0 0 
0 0 0 
0 0 0 
0 0 0 
0 0 0 
0 0 0 
0 0 0 
0 0 0 
0 0 0 
0 0 0 
0 0 0 
0 0 0 
0 0 0 
0 0 0 
0 0 0 
0 0 0 
0 0 0 
0 0 0 
0 0 0 
0 0 0 
0 0 0 
0 0 0 
0 0 0 
0 0 0 
0 0 0 
0 0 0 
0 0 0 
0 0 0 
0 0 0 
0 0 0 
0 0 0 
0 0 0 
0 0 0 
0 0 0 
0 0 0 
0 0 0 
0 0 0 
0 0 0 
0 0 0 
0 0 0 
0 0 0 
0 0 0 
0 0 0 
0 0 0 
0 0 0 
0 0 0 
0 0 0 
0 0 0 
0 0 0 
0 0 0 
0 0 0 
0 0 0 
0 0 0 
0 0 0 
0 0 0 
0 0 0 
0 0 0 
0 0 0 
0 0 0 
0 0 0 
0 0 0 
0 0 0 
0 0 0 
0 0 0 
0 0 0 
0 0 0 
0 0 0 
0 0 0 
0 0 0 
0 0 0 
0 0 0 
0 0 0 
0 0 0 
0 0 0 
0 0 0 
0 0 0 
0 0 0 
0 0 0 
0 0 0 
0 0 0 
0 0 0 
0 0 0 
0 0 0 
0 0 0 
0 0 0 
0 0 0 
0 0 0 
0 0 0 
0 0 0 
0 0 0 
0 0 0 
0 0 0 
0 0 0 
0 0 0 
0 0 0 
0 0 0 
0 0 0 
0 0 0 
0 0 0 
0 0 0 
0 0 0 
0 0 0 
0 0 0 
0 0 0 
0 0 0 
0 0 0 
0 0 0 
0 0 0 
0 0 0 
0 0 0 
0 0 0 
0 0 0 
0 0 0 
0 0 0 
0 0 0 
0 0 0 
0 0 0 
0 0 0 
0 0 0 
0 0 0 
0 0 0 
0 0 0 
0 0 0 
0 0 0 
0 0 0 
0 0 0 
0 0 0 
0 0 0 
0 0 0 
0 0 0 
0 0 0 
0 0 0 
0 0 0 
0 0 0 
0 0 0 
0 0 0 
0 0 0 
0 0 0 
0 0 0 
0 0 0 
0 0 0 
0 0 0 
0 0 0 
0 0 0 
0 0 0 
0 0 0 
0 0 0 
0 0 0 
0 0 0 
0 0 0 
0 0 0 
0 0 0 
0 0 0 
0 0 0 
0 0 0 
0 0 0 
0 0 0 
0 0 0 
0 0 0 
0 0 0 
0 0 0 
0 0 0 
0 0 0 
0 0 0 
0 0 0 
0 0 0 
0 0 0 
0 0 0 
0 0 0 
0 0 0 
0 0 0 
0 0 0 
0 0 0 
0 0 0 
0 0 0 
0 0 0 
0 0 0 
0 0 0 
0 0 0 
0 0 0 
0 0 0 
0 0 0 
0 0 0 
0 0 0 
0 0 0 
0 0 0 
0 0 0 
0 0 0 
0 0 0 
0 0 0 
0 0 0 
0 0 0 
0 0 0 
0 0 0 
0 0 0 
0 0 0 
0 0 0 
0 0 0 
0 0 0 
0 0 0 
0 0 0 
0 0 0 
0 0 0 
0 0 0 
0 0 0 
0 0 0 
0 0 0 
0 0 0 
0 0 0 
0 0 0 
0 0 0 
0 0 0 
0 0 0 
0 0 0 
0 0 0 
0 0 0 
0 0 0 
0 0 0 
0 0 0 
0 0 0 
0 0 0 
0 0 0 
0 0 0 
0 0 0 
0 0 0 
0 0 0 
0 0 0 
0 0 0 
0 0 0 
0 0 0 
0 0 0 
0 0 0 
0 0 0 
0 0 0 
0 0 0 
0 0 0 
0 0 0 
0 0 0 
0 0 0 
0 0 0 
0 0 0 
0 0 0 
0 0 0 
0 0 0 
0 0 0 
0 0 0 
0 0 0 
0 0 0 
0 0 0 
0 0 0 
0 0 0 
0 0 0 
0 0 0 
0 0 0 
0 0 0 
0 0 0 
0 0 0 
0 0 0 
0 0 0 
0 0 0 
0 0 0 
0 0 0 
0 0 0 
0 0 0 
0 0 0 
0 0 0 
0 0 0 
0 0 0 
0 0 0 
0 0 0 
0 0 0 
0 0 0 
0 0 0 
0 0 0 
0 0 0 
0 0 0 
0 0 0 
0 0 0 
0 0 0 
0 0 0 
0 0 0 
0 0 0 
0 0 0 
0 0 0 
0 0 0 
0 0 0 
0 0 0 
0 0 0 
0 0 0 
0 0 0 
0 0 0 
0 0 0 
0 0 0 
0 0 0 
0 0 0 
0 0 0 
0 0 0 
0 0 0 
0 0 0 
0 0 0 
0 0 0 
0 0 0 
0 0 0 
0 0 0 
0 0 0 
0 0 0 
0 0 0 
0 0 0 
0 0 0 
0 0 0 
0 0 0 
0 0 0 
0 0 0 
0 0 0 
0 0 0 
0 0 0 
0 0 0 
0 0 0 
0 0 0 
0 0 0 
0 0 0 
0 0 0 
0 0 0 
0 0 0 
0 0 0 
0 0 0 
0 0 0 
0 0 0 
0 0 0 
0 0 0 
0 0 0 
0 0 0 
0 0 0 
0 0 0 
0 0 0 
0 0 0 
0 0 0 
0 0 0 
0 0 0 
0 0 0 
0 0 0 
0 0 0 
0 0 0 
0 0 0 
0 0 0 
0 0 0 
0 0 0 
0 0 0 
0 0 0 
0 0 0 
0 0 0 
0 0 0 
0 0 0 
0 0 0 
0 0 0 
0 0 0 
0 0 0 
0 0 0 
0 0 0 
0 0 0 
0 0 0 
0 0 0 
0 0 0 
0 0 0 
0 0 0 
0 0 0 
0 0 0 
0 0 0 
0 0 0 
0 0 0 
0 0 0 
0 0 0 
0 0 0 
0 0 0 
0 0 0 
0 0 0 
0 0 0 
0 0 0 
0 0 0 
0 0 0 
0 0 0 
0 0 0 
0 0 0 
0 0 0 
0 0 0 
0 0 0 
0 0 0 
0 0 0 
0 0 0 
0 0 0 
0 0 0 
0 0 0 
0 0 0 
0 0 0 
0 0 0 
0 0 0 
0 0 0 
0 0 0 
0 0 0 
0 0 0 
0 0 0 
0 0 0 
0 0 0 
0 0 0 
0 0 0 
0 0 0 
0 0 0 
0 0 0 
0 0 0 
0 0 0 
0 0 0 
0 0 0 
0 0 0 
0 0 0 
0 0 0 
0 0 0 
0 0 0 
0 0 0 
0 0 0 
0 0 0 
0 0 0 
0 0 0 
0 0 0 
0 0 0 
0 0 0 
0 0 0 
0 0 0 
0 0 0 
0 0 0 
0 0 0 
0 0 0 
0 0 0 
0 0 0 
0 0 0 
0 0 0 
0 0 0 
0 0 0 
0 0 0 
0 0 0 
0 0 0 
0 0 0 
0 0 0 
0 0 0 
0 0 0 
0 0 0 
0 0 0 
0 0 0 
0 0 0 
0 0 0 
0 0 0 
0 0 0 
0 0 0 
0 0 0 
0 0 0 
0 0 0 
0 0 0 
0 0 0 
0 0 0 
0 0 0 
0 0 0 
0 0 0 
0 0 0 
0 0 0 
0 0 0 
0 0 0 
0 0 0 
0 0 0 
0 0 0 
0 0 0 
0 0 0 
0 0 0 
0 0 0 
0 0 0 
0 0 0 
0 0 0 
0 0 0 
0 0 0 
0 0 0 
0 0 0 
0 0 0 
0 0 0 
0 0 0 
0 0 0 
0 0 0 
0 0 0 
0 0 0 
0 0 0 
0 0 0 
0 0 0 
0 0 0 
0 0 0 
0 0 0 
0 0 0 
0 0 0 
0 0 0 
0 0 0 
0 0 0 
0 0 0 
0 0 0 
0 0 0 
0 0 0 
0 0 0 
0 0 0 
0 0 0 
0 0 0 
0 0 0 
0 0 0 
0 0 0 
0 0 0 
0 0 0 
0 0 0 
0 0 0 
0 0 0 
0 0 0 
0 0 0 
0 0 0 
0 0 0 
0 0 0 
0 0 0 
0 0 0 
0 0 0 
0 0 0 
0 0 0 
0 0 0 
0 0 0 
0 0 0 
0 0 0 
0 0 0 
0 0 0 
0 0 0 
0 0 0 
0 0 0 
0 0 0 
0 0 0 
0 0 0 
0 0 0 
0 0 0 
0 0 0 
0 0 0 
0 0 0 
0 0 0 
0 0 0 
0 0 0 
0 0 0 
0 0 0 
0 0 0 
0 0 0 
0 0 0 
0 0 0 
0 0 0 
0 0 0 
0 0 0 
0 0 0 
0 0 0 
0 0 0 
0 0 0 
0 0 0 
0 0 0 
0 0 0 
0 0 0 
0 0 0 
0 0 0 
0 0 0 
0 0 0 
0 0 0 
0 0 0 
0 0 0 
0 0 0 
0 0 0 
0 0 0 
0 0 0 
0 0 0 
0 0 0 
0 0 0 
0 0 0 
0 0 0 
0 0 0 
0 0 0 
0 0 0 
0 0 0 
0 0 0 
0 0 0 
0 0 0 
0 0 0 
0 0 0 
0 0 0 
0 0 0 
0 0 0 
0 0 0 
0 0 0 
0 0 0 
0 0 0 
0 0 0 
0 0 0 
0 0 0 
0 0 0 
0 0 0 
0 0 0 
0 0 0 
0 0 0 
0 0 0 
0 0 0 
0 0 0 
0 0 0 
0 0 0 
0 0 0 
0 0 0 
0 0 0 
0 0 0 
0 0 0 
0 0 0 
0 0 0 
0 0 0 
0 0 0 
0 0 0 
0 0 0 
0 0 0 
0 0 0 
0 0 0 
0 0 0 
0 0 0 
0 0 0 
0 0 0 
0 0 0 
0 0 0 
0 0 0 
0 0 0 
0 0 0 
0 0 0 
0 0 0 
0 0 0 
0 0 0 
0 0 0 
0 0 0 
0 0 0 
0 0 0 
0 0 0 
0 0 0 
0 0 0 
0 0 0 
0 0 0 
0 0 0 
0 0 0 
0 0 0 
0 0 0 
0 0 0 
0 0 0 
0 0 0 
0 0 0 
0 0 0 
0 0 0 
0 0 0 
0 0 0 
0 0 0 
0 0 0 
0 0 0 
0 0 0 
0 0 0 
0 0 0 
0 0 0 
0 0 0 
0 0 0 
0 0 0 
0 0 0 
0 0 0 
0 0 0 
0 0 0 
0 0 0 
0 0 0 
0 0 0 
0 0 0 
0 0 0 
0 0 0 
0 0 0 
0 0 0 
0 0 0 
0 0 0 
0 0 0 
0 0 0 
0 0 0 
0 0 0 
0 0 0 
0 0 0 
0 0 0 
0 0 0 
0 0 0 
0 0 0 
0 0 0 
0 0 0 
0 0 0 
0 0 0 
0 0 0 
0 0 0 
0 0 0 
0 0 0 
0 0 0 
0 0 0 
0 0 0 
0 0 0 
0 0 0 
0 0 0 
0 0 0 
0 0 0 
0 0 0 
0 0 0 
0 0 0 
0 0 0 
0 0 0 
0 0 0 
0 0 0 
0 0 0 
0 0 0 
0 0 0 
0 0 0 
0 0 0 
0 0 0 
0 0 0 
0 0 0 
0 0 0 
0 0 0 
0 0 0 
0 0 0 
0 0 0 
0 0 0 
0 0 0 
0 0 0 
0 0 0 
0 0 0 
0 0 0 
0 0 0 
0 0 0 
0 0 0 
0 0 0 
0 0 0 
0 0 0 
0 0 0 
0 0 0 
0 0 0 
0 0 0 
0 0 0 
0 0 0 
0 0 0 
0 0 0 
0 0 0 
0 0 0 
0 0 0 
0 0 0 
0 0 0 
0 0 0 
0 0 0 
0 0 0 
0 0 0 
0 0 0 
0 0 0 
0 0 0 
0 0 0 
0 0 0 
0 0 0 
0 0 0 
0 0 0 
0 0 0 
0 0 0 
0 0 0 
0 0 0 
0 0 0 
0 0 0 
0 0 0 
0 0 0 
0 0 0 
0 0 0 
0 0 0 
0 0 0 
0 0 0 
0 0 0 
0 0 0 
0 0 0 
0 0 0 
0 0 0 
0 0 0 
0 0 0 
0 0 0 
0 0 0 
0 0 0 
0 0 0 
0 0 0 
0 0 0 
0 0 0 
0 0 0 
0 0 0 
0 0 0 
0 0 0 
0 0 0 
0 0 0 
0 0 0 
0 0 0 
0 0 0 
0 0 0 
0 0 0 
0 0 0 
0 0 0 
0 0 0 
0 0 0 
0 0 0 
0 0 0 
0 0 0 
0 0 0 
0 0 0 
0 0 0 
0 0 0 
0 0 0 
0 0 0 
0 0 0 
0 0 0 
0 0 0 
0 0 0 
0 0 0 
0 0 0 
0 0 0 
0 0 0 
0 0 0 
0 0 0 
0 0 0 
0 0 0 
0 0 0 
0 0 0 
0 0 0 
0 0 0 
0 0 0 
0 0 0 
0 0 0 
0 0 0 
0 0 0 
0 0 0 
0 0 0 
0 0 0 
0 0 0 
0 0 0 
0 0 0 
0 0 0 
0 0 0 
0 0 0 
0 0 0 
0 0 0 
0 0 0 
0 0 0 
0 0 0 
0 0 0 
0 0 0 
0 0 0 
0 0 0 
0 0 0 
0 0 0 
0 0 0 
0 0 0 
0 0 0 
0 0 0 
0 0 0 
0 0 0 
0 0 0 
0 0 0 
0 0 0 
0 0 0 
0 0 0 
0 0 0 
0 0 0 
0 0 0 
0 0 0 
0 0 0 
0 0 0 
0 0 0 
0 0 0 
0 0 0 
0 0 0 
0 0 0 
0 0 0 
0 0 0 
0 0 0 
0 0 0 
0 0 0 
0 0 0 
0 0 0 
0 0 0 
0 0 0 
0 0 0 
0 0 0 
0 0 0 
0 0 0 
0 0 0 
0 0 0 
0 0 0 
0 0 0 
0 0 0 
0 0 0 
0 0 0 
0 0 0 
0 0 0 
0 0 0 
0 0 0 
0 0 0 
0 0 0 
0 0 0 
0 0 0 
0 0 0 
0 0 0 
0 0 0 
0 0 0 
0 0 0 
0 0 0 
0 0 0 
0 0 0 
0 0 0 
0 0 0 
0 0 0 
0 0 0 
0 0 0 
0 0 0 
0 0 0 
0 0 0 
0 0 0 
0 0 0 
0 0 0 
0 0 0 
0 0 0 
0 0 0 
0 0 0 
0 0 0 
0 0 0 
0 0 0 
0 0 0 
0 0 0 
0 0 0 
0 0 0 
0 0 0 
0 0 0 
0 0 0 
0 0 0 
0 0 0 
0 0 0 
0 0 0 
0 0 0 
0 0 0 
0 0 0 
0 0 0 
0 0 0 
0 0 0 
0 0 0 
0 0 0 
0 0 0 
0 0 0 
0 0 0 
0 0 0 
0 0 0 
0 0 0 
0 0 0 
0 0 0 
0 0 0 
0 0 0 
0 0 0 
0 0 0 
0 0 0 
0 0 0 
0 0 0 
0 0 0 
0 0 0 
0 0 0 
0 0 0 
0 0 0 
0 0 0 
0 0 0 
0 0 0 
0 0 0 
0 0 0 
0 0 0 
0 0 0 
0 0 0 
0 0 0 
0 0 0 
0 0 0 
0 0 0 
0 0 0 
0 0 0 
0 0 0 
0 0 0 
0 0 0 
0 0 0 
0 0 0 
0 0 0 
0 0 0 
0 0 0 
0 0 0 
0 0 0 
0 0 0 
0 0 0 
0 0 0 
0 0 0 
0 0 0 
0 0 0 
0 0 0 
0 0 0 
0 0 0 
0 0 0 
0 0 0 
0 0 0 
0 0 0 
0 0 0 
0 0 0 
0 0 0 
0 0 0 
0 0 0 
0 0 0 
0 0 0 
0 0 0 
0 0 0 
0 0 0 
0 0 0 
0 0 0 
0 0 0 
0 0 0 
0 0 0 
0 0 0 
0 0 0 
0 0 0 
0 0 0 
0 0 0 
0 0 0 
0 0 0 
0 0 0 
0 0 0 
0 0 0 
0 0 0 
0 0 0 
0 0 0 
0 0 0 
0 0 0 
0 0 0 
0 0 0 
0 0 0 
0 0 0 
0 0 0 
0 0 0 
0 0 0 
0 0 0 
0 0 0 
0 0 0 
0 0 0 
0 0 0 
0 0 0 
0 0 0 
0 0 0 
0 0 0 
0 0 0 
0 0 0 
0 0 0 
0 0 0 
0 0 0 
0 0 0 
0 0 0 
0 0 0 
0 0 0 
0 0 0 
0 0 0 
0 0 0 
0 0 0 
0 0 0 
0 0 0 
0 0 0 
0 0 0 
0 0 0 
0 0 0 
0 0 0 
0 0 0 
0 0 0 
0 0 0 
0 0 0 
0 0 0 
0 0 0 
0 0 0 
0 0 0 
0 0 0 
0 0 0 
0 0 0 
0 0 0 
0 0 0 
0 0 0 
0 0 0 
0 0 0 
0 0 0 
0 0 0 
0 0 0 
0 0 0 
0 0 0 
0 0 0 
0 0 0 
0 0 0 
0 0 0 
0 0 0 
0 0 0 
0 0 0 
0 0 0 
0 0 0 
0 0 0 
0 0 0 
0 0 0 
0 0 0 
0 0 0 
0 0 0 
0 0 0 
0 0 0 
0 0 0 
0 0 0 
0 0 0 
0 0 0 
0 0 0 
0 0 0 
0 0 0 
0 0 0 
0 0 0 
0 0 0 
0 0 0 
0 0 0 
0 0 0 
0 0 0 
0 0 0 
0 0 0 
0 0 0 
0 0 0 
0 0 0 
0 0 0 
0 0 0 
0 0 0 
0 0 0 
0 0 0 
0 0 0 
0 0 0 
0 0 0 
0 0 0 
0 0 0 
0 0 0 
0 0 0 
0 0 0 
0 0 0 
0 0 0 
0 0 0 
0 0 0 
0 0 0 
0 0 0 
0 0 0 
0 0 0 
0 0 0 
0 0 0 
0 0 0 
0 0 0 
0 0 0 
0 0 0 
0 0 0 
0 0 0 
0 0 0 
0 0 0 
0 0 0 
0 0 0 
0 0 0 
0 0 0 
0 0 0 
0 0 0 
0 0 0 
0 0 0 
0 0 0 
0 0 0 
0 0 0 
0 0 0 
0 0 0 
0 0 0 
0 0 0 
0 0 0 
0 0 0 
0 0 0 
0 0 0 
0 0 0 
0 0 0 
0 0 0 
0 0 0 
0 0 0 
0 0 0 
0 0 0 
0 0 0 
0 0 0 
0 0 0 
0 0 0 
0 0 0 
0 0 0 
0 0 0 
0 0 0 
0 0 0 
0 0 0 
0 0 0 
0 0 0 
0 0 0 
0 0 0 
0 0 0 
0 0 0 
0 0 0 
0 0 0 
0 0 0 
0 0 0 
0 0 0 
0 0 0 
0 0 0 
0 0 0 
0 0 0 
0 0 0 
0 0 0 
0 0 0 
0 0 0 
0 0 0 
0 0 0 
0 0 0 
0 0 0 
0 0 0 
0 0 0 
0 0 0 
0 0 0 
0 0 0 
0 0 0 
0 0 0 
0 0 0 
0 0 0 
0 0 0 
0 0 0 
0 0 0 
0 0 0 
0 0 0 
0 0 0 
0 0 0 
0 0 0 
0 0 0 
0 0 0 
0 0 0 
0 0 0 
0 0 0 
0 0 0 
0 0 0 
0 0 0 
0 0 0 
0 0 0 
0 0 0 
0 0 0 
0 0 0 
0 0 0 
0 0 0 
0 0 0 
0 0 0 
0 0 0 
0 0 0 
0 0 0 
0 0 0 
0 0 0 
0 0 0 
0 0 0 
0 0 0 
0 0 0 
0 0 0 
0 0 0 
0 0 0 
0 0 0 
0 0 0 
0 0 0 
0 0 0 
0 0 0 
0 0 0 
0 0 0 
0 0 0 
0 0 0 
0 0 0 
0 0 0 
0 0 0 
0 0 0 
0 0 0 
0 0 0 
0 0 0 
0 0 0 
0 0 0 
0 0 0 
0 0 0 
0 0 0 
0 0 0 
0 0 0 
0 0 0 
0 0 0 
0 0 0 
0 0 0 
0 0 0 
0 0 0 
0 0 0 
0 0 0 
0 0 0 
0 0 0 
0 0 0 
0 0 0 
0 0 0 
0 0 0 
0 0 0 
0 0 0 
0 0 0 
0 0 0 
0 0 0 
0 0 0 
0 0 0 
0 0 0 
0 0 0 
0 0 0 
0 0 0 
0 0 0 
0 0 0 
0 0 0 
0 0 0 
0 0 0 
0 0 0 
0 0 0 
0 0 0 
0 0 0 
0 0 0 
0 0 0 
0 0 0 
0 0 0 
0 0 0 
0 0 0 
0 0 0 
0 0 0 
0 0 0 
0 0 0 
0 0 0 
0 0 0 
0 0 0 
0 0 0 
0 0 0 
0 0 0 
0 0 0 
0 0 0 
0 0 0 
0 0 0 
0 0 0 
0 0 0 
0 0 0 
0 0 0 
0 0 0 
0 0 0 
0 0 0 
0 0 0 
0 0 0 
0 0 0 
0 0 0 
0 0 0 
0 0 0 
0 0 0 
0 0 0 
0 0 0 
0 0 0 
0 0 0 
0 0 0 
0 0 0 
0 0 0 
0 0 0 
0 0 0 
0 0 0 
0 0 0 
0 0 0 
0 0 0 
0 0 0 
0 0 0 
0 0 0 
0 0 0 
0 0 0 
0 0 0 
0 0 0 
0 0 0 
0 0 0 
0 0 0 
0 0 0 
0 0 0 
0 0 0 
0 0 0 
0 0 0 
0 0 0 
0 0 0 
0 0 0 
0 0 0 
0 0 0 
0 0 0 
0 0 0 
0 0 0 
0 0 0 
0 0 0 
0 0 0 
0 0 0 
0 0 0 
0 0 0 
0 0 0 
0 0 0 
0 0 0 
0 0 0 
0 0 0 
0 0 0 
0 0 0 
0 0 0 
0 0 0 
0 0 0 
0 0 0 
0 0 0 
0 0 0 
0 0 0 
0 0 0 
0 0 0 
0 0 0 
0 0 0 
0 0 0 
0 0 0 
0 0 0 
0 0 0 
0 0 0 
0 0 0 
0 0 0 
0 0 0 
0 0 0 
0 0 0 
0 0 0 
0 0 0 
0 0 0 
0 0 0 
0 0 0 
0 0 0 
0 0 0 
0 0 0 
0 0 0 
0 0 0 
0 0 0 
0 0 0 
0 0 0 
0 0 0 
0 0 0 
0 0 0 
0 0 0 
0 0 0 
0 0 0 
0 0 0 
0 0 0 
0 0 0 
0 0 0 
0 0 0 
0 0 0 
0 0 0 
0 0 0 
0 0 0 
0 0 0 
0 0 0 
0 0 0 
0 0 0 
0 0 0 
0 0 0 
0 0 0 
0 0 0 
0 0 0 
0 0 0 
0 0 0 
0 0 0 
0 0 0 
0 0 0 
0 0 0 
0 0 0 
0 0 0 
0 0 0 
0 0 0 
0 0 0 
0 0 0 
0 0 0 
0 0 0 
0 0 0 
0 0 0 
0 0 0 
0 0 0 
0 0 0 
0 0 0 
0 0 0 
0 0 0 
0 0 0 
0 0 0 
0 0 0 
0 0 0 
0 0 0 
0 0 0 
0 0 0 
0 0 0 
0 0 0 
0 0 0 
0 0 0 
0 0 0 
0 0 0 
0 0 0 
0 0 0 
0 0 0 
0 0 0 
0 0 0 
0 0 0 
0 0 0 
0 0 0 
0 0 0 
0 0 0 
0 0 0 
0 0 0 
0 0 0 
0 0 0 
0 0 0 
0 0 0 
0 0 0 
0 0 0 
0 0 0 
0 0 0 
0 0 0 
0 0 0 
0 0 0 
0 0 0 
0 0 0 
0 0 0 
0 0 0 
0 0 0 
0 0 0 
0 0 0 
0 0 0 
0 0 0 
0 0 0 
0 0 0 
0 0 0 
0 0 0 
0 0 0 
0 0 0 
0 0 0 
0 0 0 
0 0 0 
0 0 0 
0 0 0 
0 0 0 
0 0 0 
0 0 0 
0 0 0 
0 0 0 
0 0 0 
0 0 0 
0 0 0 
0 0 0 
0 0 0 
0 0 0 
0 0 0 
0 0 0 
0 0 0 
0 0 0 
0 0 0 
0 0 0 
0 0 0 
0 0 0 
0 0 0 
0 0 0 
0 0 0 
0 0 0 
0 0 0 
0 0 0 
0 0 0 
0 0 0 
0 0 0 
0 0 0 
0 0 0 
0 0 0 
0 0 0 
0 0 0 
0 0 0 
0 0 0 
0 0 0 
0 0 0 
0 0 0 
0 0 0 
0 0 0 
0 0 0 
0 0 0 
0 0 0 
0 0 0 
0 0 0 
0 0 0 
0 0 0 
0 0 0 
0 0 0 
0 0 0 
0 0 0 
0 0 0 
0 0 0 
0 0 0 
0 0 0 
0 0 0 
0 0 0 
0 0 0 
0 0 0 
0 0 0 
0 0 0 
0 0 0 
0 0 0 
0 0 0 
0 0 0 
0 0 0 
0 0 0 
0 0 0 
0 0 0 
0 0 0 
0 0 0 
0 0 0 
0 0 0 
0 0 0 
0 0 0 
0 0 0 
0 0 0 
0 0 0 
0 0 0 
0 0 0 
0 0 0 
0 0 0 
0 0 0 
0 0 0 
0 0 0 
0 0 0 
0 0 0 
0 0 0 
0 0 0 
0 0 0 
0 0 0 
0 0 0 
0 0 0 
0 0 0 
0 0 0 
0 0 0 
0 0 0 
0 0 0 
0 0 0 
0 0 0 
0 0 0 
0 0 0 
0 0 0 
0 0 0 
0 0 0 
0 0 0 
0 0 0 
0 0 0 
0 0 0 
0 0 0 
0 0 0 
0 0 0 
0 0 0 
0 0 0 
0 0 0 
0 0 0 
0 0 0 
0 0 0 
0 0 0 
0 0 0 
0 0 0 
0 0 0 
0 0 0 
0 0 0 
0 0 0 
0 0 0 
0 0 0 
0 0 0 
0 0 0 
0 0 0 
0 0 0 
0 0 0 
0 0 0 
0 0 0 
0 0 0 
0 0 0 
0 0 0 
0 0 0 
0 0 0 
0 0 0 
0 0 0 
0 0 0 
0 0 0 
0 0 0 
0 0 0 
0 0 0 
0 0 0 
0 0 0 
0 0 0 
0 0 0 
0 0 0 
0 0 0 
0 0 0 
0 0 0 
0 0 0 
0 0 0 
0 0 0 
0 0 0 
0 0 0 
0 0 0 
0 0 0 
0 0 0 
0 0 0 
0 0 0 
0 0 0 
0 0 0 
0 0 0 
0 0 0 
0 0 0 
0 0 0 
0 0 0 
0 0 0 
0 0 0 
0 0 0 
0 0 0 
0 0 0 
0 0 0 
0 0 0 

TENSORS Stress float
0 0 0 0 0 0 0 0 0 
0 0 0 0 0 0 0 0 0 
0 0 0 0 0 0 0 0 0 
0 0 0 0 0 0 0 0 0 
0 0 0 0 0 0 0 0 0 
0 0 0 0 0 0 0 0 0 
0 0 0 0 0 0 0 0 0 
0 0 0 0 0 0 0 0 0 
0 0 0 0 0 0 0 0 0 
0 0 0 0 0 0 0 0 0 
0 0 0 0 0 0 0 0 0 
0 0 0 0 0 0 0 0 0 
0 0 0 0 0 0 0 0 0 
0 0 0 0 0 0 0 0 0 
0 0 0 0 0 0 0 0 0 
0 0 0 0 0 0 0 0 0 
0 0 0 0 0 0 0 0 0 
0 0 0 0 0 0 0 0 0 
0 0 0 0 0 0 0 0 0 
0 0 0 0 0 0 0 0 0 
0 0 0 0 0 0 0 0 0 
0 0 0 0 0 0 0 0 0 
0 0 0 0 0 0 0 0 0 
0 0 0 0 0 0 0 0 0 
0 0 0 0 0 0 0 0 0 
0 0 0 0 0 0 0 0 0 
0 0 0 0 0 0 0 0 0 
0 0 0 0 0 0 0 0 0 
0 0 0 0 0 0 0 0 0 
0 0 0 0 0 0 0 0 0 
0 0 0 0 0 0 0 0 0 
0 0 0 0 0 0 0 0 0 
0 0 0 0 0 0 0 0 0 
0 0 0 0 0 0 0 0 0 
0 0 0 0 0 0 0 0 0 
0 0 0 0 0 0 0 0 0 
0 0 0 0 0 0 0 0 0 
0 0 0 0 0 0 0 0 0 
0 0 0 0 0 0 0 0 0 
0 0 0 0 0 0 0 0 0 
0 0 0 0 0 0 0 0 0 
0 0 0 0 0 0 0 0 0 
0 0 0 0 0 0 0 0 0 
0 0 0 0 0 0 0 0 0 
0 0 0 0 0 0 0 0 0 
0 0 0 0 0 0 0 0 0 
0 0 0 0 0 0 0 0 0 
0 0 0 0 0 0 0 0 0 
0 0 0 0 0 0 0 0 0 
0 0 0 0 0 0 0 0 0 
0 0 0 0 0 0 0 0 0 
0 0 0 0 0 0 0 0 0 
0 0 0 0 0 0 0 0 0 
0 0 0 0 0 0 0 0 0 
0 0 0 0 0 0 0 0 0 
0 0 0 0 0 0 0 0 0 
0 0 0 0 0 0 0 0 0 
0 0 0 0 0 0 0 0 0 
0 0 0 0 0 0 0 0 0 
0 0 0 0 0 0 0 0 0 
0 0 0 0 0 0 0 0 0 
0 0 0 0 0 0 0 0 0 
0 0 0 0 0 0 0 0 0 
0 0 0 0 0 0 0 0 0 
0 0 0 0 0 0 0 0 0 
0 0 0 0 0 0 0 0 0 
0 0 0 0 0 0 0 0 0 
0 0 0 0 0 0 0 0 0 
0 0 0 0 0 0 0 0 0 
0 0 0 0 0 0 0 0 0 
0 0 0 0 0 0 0 0 0 
0 0 0 0 0 0 0 0 0 
0 0 0 0 0 0 0 0 0 
0 0 0 0 0 0 0 0 0 
0 0 0 0 0 0 0 0 0 
0 0 0 0 0 0 0 0 0 
0 0 0 0 0 0 0 0 0 
0 0 0 0 0 0 0 0 0 
0 0 0 0 0 0 0 0 0 
0 0 0 0 0 0 0 0 0 
0 0 0 0 0 0 0 0 0 
0 0 0 0 0 0 0 0 0 
0 0 0 0 0 0 0 0 0 
0 0 0 0 0 0 0 0 0 
0 0 0 0 0 0 0 0 0 
0 0 0 0 0 0 0 0 0 
0 0 0 0 0 0 0 0 0 
0 0 0 0 0 0 0 0 0 
0 0 0 0 0 0 0 0 0 
0 0 0 0 0 0 0 0 0 
0 0 0 0 0 0 0 0 0 
0 0 0 0 0 0 0 0 0 
0 0 0 0 0 0 0 0 0 
0 0 0 0 0 0 0 0 0 
0 0 0 0 0 0 0 0 0 
0 0 0 0 0 0 0 0 0 
0 0 0 0 0 0 0 0 0 
0 0 0 0 0 0 0 0 0 
0 0 0 0 0 0 0 0 0 
0 0 0 0 0 0 0 0 0 
0 0 0 0 0 0 0 0 0 
0 0 0 0 0 0 0 0 0 
0 0 0 0 0 0 0 0 0 
0 0 0 0 0 0 0 0 0 
0 0 0 0 0 0 0 0 0 
0 0 0 0 0 0 0 0 0 
0 0 0 0 0 0 0 0 0 
0 0 0 0 0 0 0 0 0 
0 0 0 0 0 0 0 0 0 
0 0 0 0 0 0 0 0 0 
0 0 0 0 0 0 0 0 0 
0 0 0 0 0 0 0 0 0 
0 0 0 0 0 0 0 0 0 
0 0 0 0 0 0 0 0 0 
0 0 0 0 0 0 0 0 0 
0 0 0 0 0 0 0 0 0 
0 0 0 0 0 0 0 0 0 
0 0 0 0 0 0 0 0 0 
0 0 0 0 0 0 0 0 0 
0 0 0 0 0 0 0 0 0 
0 0 0 0 0 0 0 0 0 
0 0 0 0 0 0 0 0 0 
0 0 0 0 0 0 0 0 0 
0 0 0 0 0 0 0 0 0 
0 0 0 0 0 0 0 0 0 
0 0 0 0 0 0 0 0 0 
0 0 0 0 0 0 0 0 0 
0 0 0 0 0 0 0 0 0 
0 0 0 0 0 0 0 0 0 
0 0 0 0 0 0 0 0 0 
0 0 0 0 0 0 0 0 0 
0 0 0 0 0 0 0 0 0 
0 0 0 0 0 0 0 0 0 
0 0 0 0 0 0 0 0 0 
0 0 0 0 0 0 0 0 0 
0 0 0 0 0 0 0 0 0 
0 0 0 0 0 0 0 0 0 
0 0 0 0 0 0 0 0 0 
0 0 0 0 0 0 0 0 0 
0 0 0 0 0 0 0 0 0 
0 0 0 0 0 0 0 0 0 
0 0 0 0 0 0 0 0 0 
0 0 0 0 0 0 0 0 0 
0 0 0 0 0 0 0 0 0 
0 0 0 0 0 0 0 0 0 
0 0 0 0 0 0 0 0 0 
0 0 0 0 0 0 0 0 0 
0 0 0 0 0 0 0 0 0 
0 0 0 0 0 0 0 0 0 
0 0 0 0 0 0 0 0 0 
0 0 0 0 0 0 0 0 0 
0 0 0 0 0 0 0 0 0 
0 0 0 0 0 0 0 0 0 
0 0 0 0 0 0 0 0 0 
0 0 0 0 0 0 0 0 0 
0 0 0 0 0 0 0 0 0 
0 0 0 0 0 0 0 0 0 
0 0 0 0 0 0 0 0 0 
0 0 0 0 0 0 0 0 0 
0 0 0 0 0 0 0 0 0 
0 0 0 0 0 0 0 0 0 
0 0 0 0 0 0 0 0 0 
0 0 0 0 0 0 0 0 0 
0 0 0 0 0 0 0 0 0 
0 0 0 0 0 0 0 0 0 
0 0 0 0 0 0 0 0 0 
0 0 0 0 0 0 0 0 0 
0 0 0 0 0 0 0 0 0 
0 0 0 0 0 0 0 0 0 
0 0 0 0 0 0 0 0 0 
0 0 0 0 0 0 0 0 0 
0 0 0 0 0 0 0 0 0 
0 0 0 0 0 0 0 0 0 
0 0 0 0 0 0 0 0 0 
0 0 0 0 0 0 0 0 0 
0 0 0 0 0 0 0 0 0 
0 0 0 0 0 0 0 0 0 
0 0 0 0 0 0 0 0 0 
0 0 0 0 0 0 0 0 0 
0 0 0 0 0 0 0 0 0 
0 0 0 0 0 0 0 0 0 
0 0 0 0 0 0 0 0 0 
0 0 0 0 0 0 0 0 0 
0 0 0 0 0 0 0 0 0 
0 0 0 0 0 0 0 0 0 
0 0 0 0 0 0 0 0 0 
0 0 0 0 0 0 0 0 0 
0 0 0 0 0 0 0 0 0 
0 0 0 0 0 0 0 0 0 
0 0 0 0 0 0 0 0 0 
0 0 0 0 0 0 0 0 0 
0 0 0 0 0 0 0 0 0 
0 0 0 0 0 0 0 0 0 
0 0 0 0 0 0 0 0 0 
0 0 0 0 0 0 0 0 0 
0 0 0 0 0 0 0 0 0 
0 0 0 0 0 0 0 0 0 
0 0 0 0 0 0 0 0 0 
0 0 0 0 0 0 0 0 0 
0 0 0 0 0 0 0 0 0 
0 0 0 0 0 0 0 0 0 
0 0 0 0 0 0 0 0 0 
0 0 0 0 0 0 0 0 0 
0 0 0 0 0 0 0 0 0 
0 0 0 0 0 0 0 0 0 
0 0 0 0 0 0 0 0 0 
0 0 0 0 0 0 0 0 0 
0 0 0 0 0 0 0 0 0 
0 0 0 0 0 0 0 0 0 
0 0 0 0 0 0 0 0 0 
0 0 0 0 0 0 0 0 0 
0 0 0 0 0 0 0 0 0 
0 0 0 0 0 0 0 0 0 
0 0 0 0 0 0 0 0 0 
0 0 0 0 0 0 0 0 0 
0 0 0 0 0 0 0 0 0 
0 0 0 0 0 0 0 0 0 
0 0 0 0 0 0 0 0 0 
0 0 0 0 0 0 0 0 0 
0 0 0 0 0 0 0 0 0 
0 0 0 0 0 0 0 0 0 
0 0 0 0 0 0 0 0 0 
0 0 0 0 0 0 0 0 0 
0 0 0 0 0 0 0 0 0 
0 0 0 0 0 0 0 0 0 
0 0 0 0 0 0 0 0 0 
0 0 0 0 0 0 0 0 0 
0 0 0 0 0 0 0 0 0 
0 0 0 0 0 0 0 0 0 
0 0 0 0 0 0 0 0 0 
0 0 0 0 0 0 0 0 0 
0 0 0 0 0 0 0 0 0 
0 0 0 0 0 0 0 0 0 
0 0 0 0 0 0 0 0 0 
0 0 0 0 0 0 0 0 0 
0 0 0 0 0 0 0 0 0 
0 0 0 0 0 0 0 0 0 
0 0 0 0 0 0 0 0 0 
0 0 0 0 0 0 0 0 0 
0 0 0 0 0 0 0 0 0 
0 0 0 0 0 0 0 0 0 
0 0 0 0 0 0 0 0 0 
0 0 0 0 0 0 0 0 0 
0 0 0 0 0 0 0 0 0 
0 0 0 0 0 0 0 0 0 
0 0 0 0 0 0 0 0 0 
0 0 0 0 0 0 0 0 0 
0 0 0 0 0 0 0 0 0 
0 0 0 0 0 0 0 0 0 
0 0 0 0 0 0 0 0 0 
0 0 0 0 0 0 0 0 0 
0 0 0 0 0 0 0 0 0 
0 0 0 0 0 0 0 0 0 
0 0 0 0 0 0 0 0 0 
0 0 0 0 0 0 0 0 0 
0 0 0 0 0 0 0 0 0 
0 0 0 0 0 0 0 0 0 
0 0 0 0 0 0 0 0 0 
0 0 0 0 0 0 0 0 0 
0 0 0 0 0 0 0 0 0 
0 0 0 0 0 0 0 0 0 
0 0 0 0 0 0 0 0 0 
0 0 0 0 0 0 0 0 0 
0 0 0 0 0 0 0 0 0 
0 0 0 0 0 0 0 0 0 
0 0 0 0 0 0 0 0 0 
0 0 0 0 0 0 0 0 0 
0 0 0 0 0 0 0 0 0 
0 0 0 0 0 0 0 0 0 
0 0 0 0 0 0 0 0 0 
0 0 0 0 0 0 0 0 0 
0 0 0 0 0 0 0 0 0 
0 0 0 0 0 0 0 0 0 
0 0 0 0 0 0 0 0 0 
0 0 0 0 0 0 0 0 0 
0 0 0 0 0 0 0 0 0 
0 0 0 0 0 0 0 0 0 
0 0 0 0 0 0 0 0 0 
0 0 0 0 0 0 0 0 0 
0 0 0 0 0 0 0 0 0 
0 0 0 0 0 0 0 0 0 
0 0 0 0 0 0 0 0 0 
0 0 0 0 0 0 0 0 0 
0 0 0 0 0 0 0 0 0 
0 0 0 0 0 0 0 0 0 
0 0 0 0 0 0 0 0 0 
0 0 0 0 0 0 0 0 0 
0 0 0 0 0 0 0 0 0 
0 0 0 0 0 0 0 0 0 
0 0 0 0 0 0 0 0 0 
0 0 0 0 0 0 0 0 0 
0 0 0 0 0 0 0 0 0 
0 0 0 0 0 0 0 0 0 
0 0 0 0 0 0 0 0 0 
0 0 0 0 0 0 0 0 0 
0 0 0 0 0 0 0 0 0 
0 0 0 0 0 0 0 0 0 
0 0 0 0 0 0 0 0 0 
0 0 0 0 0 0 0 0 0 
0 0 0 0 0 0 0 0 0 
0 0 0 0 0 0 0 0 0 
0 0 0 0 0 0 0 0 0 
0 0 0 0 0 0 0 0 0 
0 0 0 0 0 0 0 0 0 
0 0 0 0 0 0 0 0 0 
0 0 0 0 0 0 0 0 0 
0 0 0 0 0 0 0 0 0 
0 0 0 0 0 0 0 0 0 
0 0 0 0 0 0 0 0 0 
0 0 0 0 0 0 0 0 0 
0 0 0 0 0 0 0 0 0 
0 0 0 0 0 0 0 0 0 
0 0 0 0 0 0 0 0 0 
0 0 0 0 0 0 0 0 0 
0 0 0 0 0 0 0 0 0 
0 0 0 0 0 0 0 0 0 
0 0 0 0 0 0 0 0 0 
0 0 0 0 0 0 0 0 0 
0 0 0 0 0 0 0 0 0 
0 0 0 0 0 0 0 0 0 
0 0 0 0 0 0 0 0 0 
0 0 0 0 0 0 0 0 0 
0 0 0 0 0 0 0 0 0 
0 0 0 0 0 0 0 0 0 
0 0 0 0 0 0 0 0 0 
0 0 0 0 0 0 0 0 0 
0 0 0 0 0 0 0 0 0 
0 0 0 0 0 0 0 0 0 
0 0 0 0 0 0 0 0 0 
0 0 0 0 0 0 0 0 0 
0 0 0 0 0 0 0 0 0 
0 0 0 0 0 0 0 0 0 
0 0 0 0 0 0 0 0 0 
0 0 0 0 0 0 0 0 0 
0 0 0 0 0 0 0 0 0 
0 0 0 0 0 0 0 0 0 
0 0 0 0 0 0 0 0 0 
0 0 0 0 0 0 0 0 0 
0 0 0 0 0 0 0 0 0 
0 0 0 0 0 0 0 0 0 
0 0 0 0 0 0 0 0 0 
0 0 0 0 0 0 0 0 0 
0 0 0 0 0 0 0 0 0 
0 0 0 0 0 0 0 0 0 
0 0 0 0 0 0 0 0 0 
0 0 0 0 0 0 0 0 0 
0 0 0 0 0 0 0 0 0 
0 0 0 0 0 0 0 0 0 
0 0 0 0 0 0 0 0 0 
0 0 0 0 0 0 0 0 0 
0 0 0 0 0 0 0 0 0 
0 0 0 0 0 0 0 0 0 
0 0 0 0 0 0 0 0 0 
0 0 0 0 0 0 0 0 0 
0 0 0 0 0 0 0 0 0 
0 0 0 0 0 0 0 0 0 
0 0 0 0 0 0 0 0 0 
0 0 0 0 0 0 0 0 0 
0 0 0 0 0 0 0 0 0 
0 0 0 0 0 0 0 0 0 
0 0 0 0 0 0 0 0 0 
0 0 0 0 0 0 0 0 0 
0 0 0 0 0 0 0 0 0 
0 0 0 0 0 0 0 0 0 
0 0 0 0 0 0 0 0 0 
0 0 0 0 0 0 0 0 0 
0 0 0 0 0 0 0 0 0 
0 0 0 0 0 0 0 0 0 
0 0 0 0 0 0 0 0 0 
0 0 0 0 0 0 0 0 0 
0 0 0 0 0 0 0 0 0 
0 0 0 0 0 0 0 0 0 
0 0 0 0 0 0 0 0 0 
0 0 0 0 0 0 0 0 0 
0 0 0 0 0 0 0 0 0 
0 0 0 0 0 0 0 0 0 
0 0 0 0 0 0 0 0 0 
0 0 0 0 0 0 0 0 0 
0 0 0 0 0 0 0 0 0 
0 0 0 0 0 0 0 0 0 
0 0 0 0 0 0 0 0 0 
0 0 0 0 0 0 0 0 0 
0 0 0 0 0 0 0 0 0 
0 0 0 0 0 0 0 0 0 
0 0 0 0 0 0 0 0 0 
0 0 0 0 0 0 0 0 0 
0 0 0 0 0 0 0 0 0 
0 0 0 0 0 0 0 0 0 
0 0 0 0 0 0 0 0 0 
0 0 0 0 0 0 0 0 0 
0 0 0 0 0 0 0 0 0 
0 0 0 0 0 0 0 0 0 
0 0 0 0 0 0 0 0 0 
0 0 0 0 0 0 0 0 0 
0 0 0 0 0 0 0 0 0 
0 0 0 0 0 0 0 0 0 
0 0 0 0 0 0 0 0 0 
0 0 0 0 0 0 0 0 0 
0 0 0 0 0 0 0 0 0 
0 0 0 0 0 0 0 0 0 
0 0 0 0 0 0 0 0 0 
0 0 0 0 0 0 0 0 0 
0 0 0 0 0 0 0 0 0 
0 0 0 0 0 0 0 0 0 
0 0 0 0 0 0 0 0 0 
0 0 0 0 0 0 0 0 0 
0 0 0 0 0 0 0 0 0 
0 0 0 0 0 0 0 0 0 
0 0 0 0 0 0 0 0 0 
0 0 0 0 0 0 0 0 0 
0 0 0 0 0 0 0 0 0 
0 0 0 0 0 0 0 0 0 
0 0 0 0 0 0 0 0 0 
0 0 0 0 0 0 0 0 0 
0 0 0 0 0 0 0 0 0 
0 0 0 0 0 0 0 0 0 
0 0 0 0 0 0 0 0 0 
0 0 0 0 0 0 0 0 0 
0 0 0 0 0 0 0 0 0 
0 0 0 0 0 0 0 0 0 
0 0 0 0 0 0 0 0 0 
0 0 0 0 0 0 0 0 0 
0 0 0 0 0 0 0 0 0 
0 0 0 0 0 0 0 0 0 
0 0 0 0 0 0 0 0 0 
0 0 0 0 0 0 0 0 0 
0 0 0 0 0 0 0 0 0 
0 0 0 0 0 0 0 0 0 
0 0 0 0 0 0 0 0 0 
0 0 0 0 0 0 0 0 0 
0 0 0 0 0 0 0 0 0 
0 0 0 0 0 0 0 0 0 
0 0 0 0 0 0 0 0 0 
0 0 0 0 0 0 0 0 0 
0 0 0 0 0 0 0 0 0 
0 0 0 0 0 0 0 0 0 
0 0 0 0 0 0 0 0 0 
0 0 0 0 0 0 0 0 0 
0 0 0 0 0 0 0 0 0 
0 0 0 0 0 0 0 0 0 
0 0 0 0 0 0 0 0 0 
0 0 0 0 0 0 0 0 0 
0 0 0 0 0 0 0 0 0 
0 0 0 0 0 0 0 0 0 
0 0 0 0 0 0 0 0 0 
0 0 0 0 0 0 0 0 0 
0 0 0 0 0 0 0 0 0 
0 0 0 0 0 0 0 0 0 
0 0 0 0 0 0 0 0 0 
0 0 0 0 0 0 0 0 0 
0 0 0 0 0 0 0 0 0 
0 0 0 0 0 0 0 0 0 
0 0 0 0 0 0 0 0 0 
0 0 0 0 0 0 0 0 0 
0 0 0 0 0 0 0 0 0 
0 0 0 0 0 0 0 0 0 
0 0 0 0 0 0 0 0 0 
0 0 0 0 0 0 0 0 0 
0 0 0 0 0 0 0 0 0 
0 0 0 0 0 0 0 0 0 
0 0 0 0 0 0 0 0 0 
0 0 0 0 0 0 0 0 0 
0 0 0 0 0 0 0 0 0 
0 0 0 0 0 0 0 0 0 
0 0 0 0 0 0 0 0 0 
0 0 0 0 0 0 0 0 0 
0 0 0 0 0 0 0 0 0 
0 0 0 0 0 0 0 0 0 
0 0 0 0 0 0 0 0 0 
0 0 0 0 0 0 0 0 0 
0 0 0 0 0 0 0 0 0 
0 0 0 0 0 0 0 0 0 
0 0 0 0 0 0 0 0 0 
0 0 0 0 0 0 0 0 0 
0 0 0 0 0 0 0 0 0 
0 0 0 0 0 0 0 0 0 
0 0 0 0 0 0 0 0 0 
0 0 0 0 0 0 0 0 0 
0 0 0 0 0 0 0 0 0 
0 0 0 0 0 0 0 0 0 
0 0 0 0 0 0 0 0 0 
0 0 0 0 0 0 0 0 0 
0 0 0 0 0 0 0 0 0 
0 0 0 0 0 0 0 0 0 
0 0 0 0 0 0 0 0 0 
0 0 0 0 0 0 0 0 0 
0 0 0 0 0 0 0 0 0 
0 0 0 0 0 0 0 0 0 
0 0 0 0 0 0 0 0 0 
0 0 0 0 0 0 0 0 0 
0 0 0 0 0 0 0 0 0 
0 0 0 0 0 0 0 0 0 
0 0 0 0 0 0 0 0 0 
0 0 0 0 0 0 0 0 0 
0 0 0 0 0 0 0 0 0 
0 0 0 0 0 0 0 0 0 
0 0 0 0 0 0 0 0 0 
0 0 0 0 0 0 0 0 0 
0 0 0 0 0 0 0 0 0 
0 0 0 0 0 0 0 0 0 
0 0 0 0 0 0 0 0 0 
0 0 0 0 0 0 0 0 0 
0 0 0 0 0 0 0 0 0 
0 0 0 0 0 0 0 0 0 
0 0 0 0 0 0 0 0 0 
0 0 0 0 0 0 0 0 0 
0 0 0 0 0 0 0 0 0 
0 0 0 0 0 0 0 0 0 
0 0 0 0 0 0 0 0 0 
0 0 0 0 0 0 0 0 0 
0 0 0 0 0 0 0 0 0 
0 0 0 0 0 0 0 0 0 
0 0 0 0 0 0 0 0 0 
0 0 0 0 0 0 0 0 0 
0 0 0 0 0 0 0 0 0 
0 0 0 0 0 0 0 0 0 
0 0 0 0 0 0 0 0 0 
0 0 0 0 0 0 0 0 0 
0 0 0 0 0 0 0 0 0 
0 0 0 0 0 0 0 0 0 
0 0 0 0 0 0 0 0 0 
0 0 0 0 0 0 0 0 0 
0 0 0 0 0 0 0 0 0 
0 0 0 0 0 0 0 0 0 
0 0 0 0 0 0 0 0 0 
0 0 0 0 0 0 0 0 0 
0 0 0 0 0 0 0 0 0 
0 0 0 0 0 0 0 0 0 
0 0 0 0 0 0 0 0 0 
0 0 0 0 0 0 0 0 0 
0 0 0 0 0 0 0 0 0 
0 0 0 0 0 0 0 0 0 
0 0 0 0 0 0 0 0 0 
0 0 0 0 0 0 0 0 0 
0 0 0 0 0 0 0 0 0 
0 0 0 0 0 0 0 0 0 
0 0 0 0 0 0 0 0 0 
0 0 0 0 0 0 0 0 0 
0 0 0 0 0 0 0 0 0 
0 0 0 0 0 0 0 0 0 
0 0 0 0 0 0 0 0 0 
0 0 0 0 0 0 0 0 0 
0 0 0 0 0 0 0 0 0 
0 0 0 0 0 0 0 0 0 
0 0 0 0 0 0 0 0 0 
0 0 0 0 0 0 0 0 0 
0 0 0 0 0 0 0 0 0 
0 0 0 0 0 0 0 0 0 
0 0 0 0 0 0 0 0 0 
0 0 0 0 0 0 0 0 0 
0 0 0 0 0 0 0 0 0 
0 0 0 0 0 0 0 0 0 
0 0 0 0 0 0 0 0 0 
0 0 0 0 0 0 0 0 0 
0 0 0 0 0 0 0 0 0 
0 0 0 0 0 0 0 0 0 
0 0 0 0 0 0 0 0 0 
0 0 0 0 0 0 0 0 0 
0 0 0 0 0 0 0 0 0 
0 0 0 0 0 0 0 0 0 
0 0 0 0 0 0 0 0 0 
0 0 0 0 0 0 0 0 0 
0 0 0 0 0 0 0 0 0 
0 0 0 0 0 0 0 0 0 
0 0 0 0 0 0 0 0 0 
0 0 0 0 0 0 0 0 0 
0 0 0 0 0 0 0 0 0 
0 0 0 0 0 0 0 0 0 
0 0 0 0 0 0 0 0 0 
0 0 0 0 0 0 0 0 0 
0 0 0 0 0 0 0 0 0 
0 0 0 0 0 0 0 0 0 
0 0 0 0 0 0 0 0 0 
0 0 0 0 0 0 0 0 0 
0 0 0 0 0 0 0 0 0 
0 0 0 0 0 0 0 0 0 
0 0 0 0 0 0 0 0 0 
0 0 0 0 0 0 0 0 0 
0 0 0 0 0 0 0 0 0 
0 0 0 0 0 0 0 0 0 
0 0 0 0 0 0 0 0 0 
0 0 0 0 0 0 0 0 0 
0 0 0 0 0 0 0 0 0 
0 0 0 0 0 0 0 0 0 
0 0 0 0 0 0 0 0 0 
0 0 0 0 0 0 0 0 0 
0 0 0 0 0 0 0 0 0 
0 0 0 0 0 0 0 0 0 
0 0 0 0 0 0 0 0 0 
0 0 0 0 0 0 0 0 0 
0 0 0 0 0 0 0 0 0 
0 0 0 0 0 0 0 0 0 
0 0 0 0 0 0 0 0 0 
0 0 0 0 0 0 0 0 0 
0 0 0 0 0 0 0 0 0 
0 0 0 0 0 0 0 0 0 
0 0 0 0 0 0 0 0 0 
0 0 0 0 0 0 0 0 0 
0 0 0 0 0 0 0 0 0 
0 0 0 0 0 0 0 0 0 
0 0 0 0 0 0 0 0 0 
0 0 0 0 0 0 0 0 0 
0 0 0 0 0 0 0 0 0 
0 0 0 0 0 0 0 0 0 
0 0 0 0 0 0 0 0 0 
0 0 0 0 0 0 0 0 0 
0 0 0 0 0 0 0 0 0 
0 0 0 0 0 0 0 0 0 
0 0 0 0 0 0 0 0 0 
0 0 0 0 0 0 0 0 0 
0 0 0 0 0 0 0 0 0 
0 0 0 0 0 0 0 0 0 
0 0 0 0 0 0 0 0 0 
0 0 0 0 0 0 0 0 0 
0 0 0 0 0 0 0 0 0 
0 0 0 0 0 0 0 0 0 
0 0 0 0 0 0 0 0 0 
0 0 0 0 0 0 0 0 0 
0 0 0 0 0 0 0 0 0 
0 0 0 0 0 0 0 0 0 
0 0 0 0 0 0 0 0 0 
0 0 0 0 0 0 0 0 0 
0 0 0 0 0 0 0 0 0 
0 0 0 0 0 0 0 0 0 
0 0 0 0 0 0 0 0 0 
0 0 0 0 0 0 0 0 0 
0 0 0 0 0 0 0 0 0 
0 0 0 0 0 0 0 0 0 
0 0 0 0 0 0 0 0 0 
0 0 0 0 0 0 0 0 0 
0 0 0 0 0 0 0 0 0 
0 0 0 0 0 0 0 0 0 
0 0 0 0 0 0 0 0 0 
0 0 0 0 0 0 0 0 0 
0 0 0 0 0 0 0 0 0 
0 0 0 0 0 0 0 0 0 
0 0 0 0 0 0 0 0 0 
0 0 0 0 0 0 0 0 0 
0 0 0 0 0 0 0 0 0 
0 0 0 0 0 0 0 0 0 
0 0 0 0 0 0 0 0 0 
0 0 0 0 0 0 0 0 0 
0 0 0 0 0 0 0 0 0 
0 0 0 0 0 0 0 0 0 
0 0 0 0 0 0 0 0 0 
0 0 0 0 0 0 0 0 0 
0 0 0 0 0 0 0 0 0 
0 0 0 0 0 0 0 0 0 
0 0 0 0 0 0 0 0 0 
0 0 0 0 0 0 0 0 0 
0 0 0 0 0 0 0 0 0 
0 0 0 0 0 0 0 0 0 
0 0 0 0 0 0 0 0 0 
0 0 0 0 0 0 0 0 0 
0 0 0 0 0 0 0 0 0 
0 0 0 0 0 0 0 0 0 
0 0 0 0 0 0 0 0 0 
0 0 0 0 0 0 0 0 0 
0 0 0 0 0 0 0 0 0 
0 0 0 0 0 0 0 0 0 
0 0 0 0 0 0 0 0 0 
0 0 0 0 0 0 0 0 0 
0 0 0 0 0 0 0 0 0 
0 0 0 0 0 0 0 0 0 
0 0 0 0 0 0 0 0 0 
0 0 0 0 0 0 0 0 0 
0 0 0 0 0 0 0 0 0 
0 0 0 0 0 0 0 0 0 
0 0 0 0 0 0 0 0 0 
0 0 0 0 0 0 0 0 0 
0 0 0 0 0 0 0 0 0 
0 0 0 0 0 0 0 0 0 
0 0 0 0 0 0 0 0 0 
0 0 0 0 0 0 0 0 0 
0 0 0 0 0 0 0 0 0 
0 0 0 0 0 0 0 0 0 
0 0 0 0 0 0 0 0 0 
0 0 0 0 0 0 0 0 0 
0 0 0 0 0 0 0 0 0 
0 0 0 0 0 0 0 0 0 
0 0 0 0 0 0 0 0 0 
0 0 0 0 0 0 0 0 0 
0 0 0 0 0 0 0 0 0 
0 0 0 0 0 0 0 0 0 
0 0 0 0 0 0 0 0 0 
0 0 0 0 0 0 0 0 0 
0 0 0 0 0 0 0 0 0 
0 0 0 0 0 0 0 0 0 
0 0 0 0 0 0 0 0 0 
0 0 0 0 0 0 0 0 0 
0 0 0 0 0 0 0 0 0 
0 0 0 0 0 0 0 0 0 
0 0 0 0 0 0 0 0 0 
0 0 0 0 0 0 0 0 0 
0 0 0 0 0 0 0 0 0 
0 0 0 0 0 0 0 0 0 
0 0 0 0 0 0 0 0 0 
0 0 0 0 0 0 0 0 0 
0 0 0 0 0 0 0 0 0 
0 0 0 0 0 0 0 0 0 
0 0 0 0 0 0 0 0 0 
0 0 0 0 0 0 0 0 0 
0 0 0 0 0 0 0 0 0 
0 0 0 0 0 0 0 0 0 
0 0 0 0 0 0 0 0 0 
0 0 0 0 0 0 0 0 0 
0 0 0 0 0 0 0 0 0 
0 0 0 0 0 0 0 0 0 
0 0 0 0 0 0 0 0 0 
0 0 0 0 0 0 0 0 0 
0 0 0 0 0 0 0 0 0 
0 0 0 0 0 0 0 0 0 
0 0 0 0 0 0 0 0 0 
0 0 0 0 0 0 0 0 0 
0 0 0 0 0 0 0 0 0 
0 0 0 0 0 0 0 0 0 
0 0 0 0 0 0 0 0 0 
0 0 0 0 0 0 0 0 0 
0 0 0 0 0 0 0 0 0 
0 0 0 0 0 0 0 0 0 
0 0 0 0 0 0 0 0 0 
0 0 0 0 0 0 0 0 0 
0 0 0 0 0 0 0 0 0 
0 0 0 0 0 0 0 0 0 
0 0 0 0 0 0 0 0 0 
0 0 0 0 0 0 0 0 0 
0 0 0 0 0 0 0 0 0 
0 0 0 0 0 0 0 0 0 
0 0 0 0 0 0 0 0 0 
0 0 0 0 0 0 0 0 0 
0 0 0 0 0 0 0 0 0 
0 0 0 0 0 0 0 0 0 
0 0 0 0 0 0 0 0 0 
0 0 0 0 0 0 0 0 0 
0 0 0 0 0 0 0 0 0 
0 0 0 0 0 0 0 0 0 
0 0 0 0 0 0 0 0 0 
0 0 0 0 0 0 0 0 0 
0 0 0 0 0 0 0 0 0 
0 0 0 0 0 0 0 0 0 
0 0 0 0 0 0 0 0 0 
0 0 0 0 0 0 0 0 0 
0 0 0 0 0 0 0 0 0 
0 0 0 0 0 0 0 0 0 
0 0 0 0 0 0 0 0 0 
0 0 0 0 0 0 0 0 0 
0 0 0 0 0 0 0 0 0 
0 0 0 0 0 0 0 0 0 
0 0 0 0 0 0 0 0 0 
0 0 0 0 0 0 0 0 0 
0 0 0 0 0 0 0 0 0 
0 0 0 0 0 0 0 0 0 
0 0 0 0 0 0 0 0 0 
0 0 0 0 0 0 0 0 0 
0 0 0 0 0 0 0 0 0 
0 0 0 0 0 0 0 0 0 
0 0 0 0 0 0 0 0 0 
0 0 0 0 0 0 0 0 0 
0 0 0 0 0 0 0 0 0 
0 0 0 0 0 0 0 0 0 
0 0 0 0 0 0 0 0 0 
0 0 0 0 0 0 0 0 0 
0 0 0 0 0 0 0 0 0 
0 0 0 0 0 0 0 0 0 
0 0 0 0 0 0 0 0 0 
0 0 0 0 0 0 0 0 0 
0 0 0 0 0 0 0 0 0 
0 0 0 0 0 0 0 0 0 
0 0 0 0 0 0 0 0 0 
0 0 0 0 0 0 0 0 0 
0 0 0 0 0 0 0 0 0 
0 0 0 0 0 0 0 0 0 
0 0 0 0 0 0 0 0 0 
0 0 0 0 0 0 0 0 0 
0 0 0 0 0 0 0 0 0 
0 0 0 0 0 0 0 0 0 
0 0 0 0 0 0 0 0 0 
0 0 0 0 0 0 0 0 0 
0 0 0 0 0 0 0 0 0 
0 0 0 0 0 0 0 0 0 
0 0 0 0 0 0 0 0 0 
0 0 0 0 0 0 0 0 0 
0 0 0 0 0 0 0 0 0 
0 0 0 0 0 0 0 0 0 
0 0 0 0 0 0 0 0 0 
0 0 0 0 0 0 0 0 0 
0 0 0 0 0 0 0 0 0 
0 0 0 0 0 0 0 0 0 
0 0 0 0 0 0 0 0 0 
0 0 0 0 0 0 0 0 0 
0 0 0 0 0 0 0 0 0 
0 0 0 0 0 0 0 0 0 
0 0 0 0 0 0 0 0 0 
0 0 0 0 0 0 0 0 0 
0 0 0 0 0 0 0 0 0 
0 0 0 0 0 0 0 0 0 
0 0 0 0 0 0 0 0 0 
0 0 0 0 0 0 0 0 0 
0 0 0 0 0 0 0 0 0 
0 0 0 0 0 0 0 0 0 
0 0 0 0 0 0 0 0 0 
0 0 0 0 0 0 0 0 0 
0 0 0 0 0 0 0 0 0 
0 0 0 0 0 0 0 0 0 
0 0 0 0 0 0 0 0 0 
0 0 0 0 0 0 0 0 0 
0 0 0 0 0 0 0 0 0 
0 0 0 0 0 0 0 0 0 
0 0 0 0 0 0 0 0 0 
0 0 0 0 0 0 0 0 0 
0 0 0 0 0 0 0 0 0 
0 0 0 0 0 0 0 0 0 
0 0 0 0 0 0 0 0 0 
0 0 0 0 0 0 0 0 0 
0 0 0 0 0 0 0 0 0 
0 0 0 0 0 0 0 0 0 
0 0 0 0 0 0 0 0 0 
0 0 0 0 0 0 0 0 0 
0 0 0 0 0 0 0 0 0 
0 0 0 0 0 0 0 0 0 
0 0 0 0 0 0 0 0 0 
0 0 0 0 0 0 0 0 0 
0 0 0 0 0 0 0 0 0 
0 0 0 0 0 0 0 0 0 
0 0 0 0 0 0 0 0 0 
0 0 0 0 0 0 0 0 0 
0 0 0 0 0 0 0 0 0 
0 0 0 0 0 0 0 0 0 
0 0 0 0 0 0 0 0 0 
0 0 0 0 0 0 0 0 0 
0 0 0 0 0 0 0 0 0 
0 0 0 0 0 0 0 0 0 
0 0 0 0 0 0 0 0 0 
0 0 0 0 0 0 0 0 0 
0 0 0 0 0 0 0 0 0 
0 0 0 0 0 0 0 0 0 
0 0 0 0 0 0 0 0 0 
0 0 0 0 0 0 0 0 0 
0 0 0 0 0 0 0 0 0 
0 0 0 0 0 0 0 0 0 
0 0 0 0 0 0 0 0 0 
0 0 0 0 0 0 0 0 0 
0 0 0 0 0 0 0 0 0 
0 0 0 0 0 0 0 0 0 
0 0 0 0 0 0 0 0 0 
0 0 0 0 0 0 0 0 0 
0 0 0 0 0 0 0 0 0 
0 0 0 0 0 0 0 0 0 
0 0 0 0 0 0 0 0 0 
0 0 0 0 0 0 0 0 0 
0 0 0 0 0 0 0 0 0 
0 0 0 0 0 0 0 0 0 
0 0 0 0 0 0 0 0 0 
0 0 0 0 0 0 0 0 0 
0 0 0 0 0 0 0 0 0 
0 0 0 0 0 0 0 0 0 
0 0 0 0 0 0 0 0 0 
0 0 0 0 0 0 0 0 0 
0 0 0 0 0 0 0 0 0 
0 0 0 0 0 0 0 0 0 
0 0 0 0 0 0 0 0 0 
0 0 0 0 0 0 0 0 0 
0 0 0 0 0 0 0 0 0 
0 0 0 0 0 0 0 0 0 
0 0 0 0 0 0 0 0 0 
0 0 0 0 0 0 0 0 0 
0 0 0 0 0 0 0 0 0 
0 0 0 0 0 0 0 0 0 
0 0 0 0 0 0 0 0 0 
0 0 0 0 0 0 0 0 0 
0 0 0 0 0 0 0 0 0 
0 0 0 0 0 0 0 0 0 
0 0 0 0 0 0 0 0 0 
0 0 0 0 0 0 0 0 0 
0 0 0 0 0 0 0 0 0 
0 0 0 0 0 0 0 0 0 
0 0 0 0 0 0 0 0 0 
0 0 0 0 0 0 0 0 0 
0 0 0 0 0 0 0 0 0 
0 0 0 0 0 0 0 0 0 
0 0 0 0 0 0 0 0 0 
0 0 0 0 0 0 0 0 0 
0 0 0 0 0 0 0 0 0 
0 0 0 0 0 0 0 0 0 
0 0 0 0 0 0 0 0 0 
0 0 0 0 0 0 0 0 0 
0 0 0 0 0 0 0 0 0 
0 0 0 0 0 0 0 0 0 
0 0 0 0 0 0 0 0 0 
0 0 0 0 0 0 0 0 0 
0 0 0 0 0 0 0 0 0 
0 0 0 0 0 0 0 0 0 
0 0 0 0 0 0 0 0 0 
0 0 0 0 0 0 0 0 0 
0 0 0 0 0 0 0 0 0 
0 0 0 0 0 0 0 0 0 
0 0 0 0 0 0 0 0 0 
0 0 0 0 0 0 0 0 0 
0 0 0 0 0 0 0 0 0 
0 0 0 0 0 0 0 0 0 
0 0 0 0 0 0 0 0 0 
0 0 0 0 0 0 0 0 0 
0 0 0 0 0 0 0 0 0 
0 0 0 0 0 0 0 0 0 
0 0 0 0 0 0 0 0 0 
0 0 0 0 0 0 0 0 0 
0 0 0 0 0 0 0 0 0 
0 0 0 0 0 0 0 0 0 
0 0 0 0 0 0 0 0 0 
0 0 0 0 0 0 0 0 0 
0 0 0 0 0 0 0 0 0 
0 0 0 0 0 0 0 0 0 
0 0 0 0 0 0 0 0 0 
0 0 0 0 0 0 0 0 0 
0 0 0 0 0 0 0 0 0 
0 0 0 0 0 0 0 0 0 
0 0 0 0 0 0 0 0 0 
0 0 0 0 0 0 0 0 0 
0 0 0 0 0 0 0 0 0 
0 0 0 0 0 0 0 0 0 
0 0 0 0 0 0 0 0 0 
0 0 0 0 0 0 0 0 0 
0 0 0 0 0 0 0 0 0 
0 0 0 0 0 0 0 0 0 
0 0 0 0 0 0 0 0 0 
0 0 0 0 0 0 0 0 0 
0 0 0 0 0 0 0 0 0 
0 0 0 0 0 0 0 0 0 
0 0 0 0 0 0 0 0 0 
0 0 0 0 0 0 0 0 0 
0 0 0 0 0 0 0 0 0 
0 0 0 0 0 0 0 0 0 
0 0 0 0 0 0 0 0 0 
0 0 0 0 0 0 0 0 0 
0 0 0 0 0 0 0 0 0 
0 0 0 0 0 0 0 0 0 
0 0 0 0 0 0 0 0 0 
0 0 0 0 0 0 0 0 0 
0 0 0 0 0 0 0 0 0 
0 0 0 0 0 0 0 0 0 
0 0 0 0 0 0 0 0 0 
0 0 0 0 0 0 0 0 0 
0 0 0 0 0 0 0 0 0 
0 0 0 0 0 0 0 0 0 
0 0 0 0 0 0 0 0 0 
0 0 0 0 0 0 0 0 0 
0 0 0 0 0 0 0 0 0 
0 0 0 0 0 0 0 0 0 
0 0 0 0 0 0 0 0 0 
0 0 0 0 0 0 0 0 0 
0 0 0 0 0 0 0 0 0 
0 0 0 0 0 0 0 0 0 
0 0 0 0 0 0 0 0 0 
0 0 0 0 0 0 0 0 0 
0 0 0 0 0 0 0 0 0 
0 0 0 0 0 0 0 0 0 
0 0 0 0 0 0 0 0 0 
0 0 0 0 0 0 0 0 0 
0 0 0 0 0 0 0 0 0 
0 0 0 0 0 0 0 0 0 
0 0 0 0 0 0 0 0 0 
0 0 0 0 0 0 0 0 0 
0 0 0 0 0 0 0 0 0 
0 0 0 0 0 0 0 0 0 
0 0 0 0 0 0 0 0 0 
0 0 0 0 0 0 0 0 0 
0 0 0 0 0 0 0 0 0 
0 0 0 0 0 0 0 0 0 
0 0 0 0 0 0 0 0 0 
0 0 0 0 0 0 0 0 0 
0 0 0 0 0 0 0 0 0 
0 0 0 0 0 0 0 0 0 
0 0 0 0 0 0 0 0 0 
0 0 0 0 0 0 0 0 0 
0 0 0 0 0 0 0 0 0 
0 0 0 0 0 0 0 0 0 
0 0 0 0 0 0 0 0 0 
0 0 0 0 0 0 0 0 0 
0 0 0 0 0 0 0 0 0 
0 0 0 0 0 0 0 0 0 
0 0 0 0 0 0 0 0 0 
0 0 0 0 0 0 0 0 0 
0 0 0 0 0 0 0 0 0 
0 0 0 0 0 0 0 0 0 
0 0 0 0 0 0 0 0 0 
0 0 0 0 0 0 0 0 0 
0 0 0 0 0 0 0 0 0 
0 0 0 0 0 0 0 0 0 
0 0 0 0 0 0 0 0 0 
0 0 0 0 0 0 0 0 0 
0 0 0 0 0 0 0 0 0 
0 0 0 0 0 0 0 0 0 
0 0 0 0 0 0 0 0 0 
0 0 0 0 0 0 0 0 0 
0 0 0 0 0 0 0 0 0 
0 0 0 0 0 0 0 0 0 
0 0 0 0 0 0 0 0 0 
0 0 0 0 0 0 0 0 0 
0 0 0 0 0 0 0 0 0 
0 0 0 0 0 0 0 0 0 
0 0 0 0 0 0 0 0 0 
0 0 0 0 0 0 0 0 0 
0 0 0 0 0 0 0 0 0 
0 0 0 0 0 0 0 0 0 
0 0 0 0 0 0 0 0 0 
0 0 0 0 0 0 0 0 0 
0 0 0 0 0 0 0 0 0 
0 0 0 0 0 0 0 0 0 
0 0 0 0 0 0 0 0 0 
0 0 0 0 0 0 0 0 0 
0 0 0 0 0 0 0 0 0 
0 0 0 0 0 0 0 0 0 
0 0 0 0 0 0 0 0 0 
0 0 0 0 0 0 0 0 0 
0 0 0 0 0 0 0 0 0 
0 0 0 0 0 0 0 0 0 
0 0 0 0 0 0 0 0 0 
0 0 0 0 0 0 0 0 0 
0 0 0 0 0 0 0 0 0 
0 0 0 0 0 0 0 0 0 
0 0 0 0 0 0 0 0 0 
0 0 0 0 0 0 0 0 0 
0 0 0 0 0 0 0 0 0 
0 0 0 0 0 0 0 0 0 
0 0 0 0 0 0 0 0 0 
0 0 0 0 0 0 0 0 0 
0 0 0 0 0 0 0 0 0 
0 0 0 0 0 0 0 0 0 
0 0 0 0 0 0 0 0 0 
0 0 0 0 0 0 0 0 0 
0 0 0 0 0 0 0 0 0 
0 0 0 0 0 0 0 0 0 
0 0 0 0 0 0 0 0 0 
0 0 0 0 0 0 0 0 0 
0 0 0 0 0 0 0 0 0 
0 0 0 0 0 0 0 0 0 
0 0 0 0 0 0 0 0 0 
0 0 0 0 0 0 0 0 0 
0 0 0 0 0 0 0 0 0 
0 0 0 0 0 0 0 0 0 
0 0 0 0 0 0 0 0 0 
0 0 0 0 0 0 0 0 0 
0 0 0 0 0 0 0 0 0 
0 0 0 0 0 0 0 0 0 
0 0 0 0 0 0 0 0 0 
0 0 0 0 0 0 0 0 0 
0 0 0 0 0 0 0 0 0 
0 0 0 0 0 0 0 0 0 
0 0 0 0 0 0 0 0 0 
0 0 0 0 0 0 0 0 0 
0 0 0 0 0 0 0 0 0 
0 0 0 0 0 0 0 0 0 
0 0 0 0 0 0 0 0 0 
0 0 0 0 0 0 0 0 0 
0 0 0 0 0 0 0 0 0 
0 0 0 0 0 0 0 0 0 
0 0 0 0 0 0 0 0 0 
0 0 0 0 0 0 0 0 0 
0 0 0 0 0 0 0 0 0 
0 0 0 0 0 0 0 0 0 
0 0 0 0 0 0 0 0 0 
0 0 0 0 0 0 0 0 0 
0 0 0 0 0 0 0 0 0 
0 0 0 0 0 0 0 0 0 
0 0 0 0 0 0 0 0 0 
0 0 0 0 0 0 0 0 0 
0 0 0 0 0 0 0 0 0 
0 0 0 0 0 0 0 0 0 
0 0 0 0 0 0 0 0 0 
0 0 0 0 0 0 0 0 0 
0 0 0 0 0 0 0 0 0 
0 0 0 0 0 0 0 0 0 
0 0 0 0 0 0 0 0 0 
0 0 0 0 0 0 0 0 0 
0 0 0 0 0 0 0 0 0 
0 0 0 0 0 0 0 0 0 
0 0 0 0 0 0 0 0 0 
0 0 0 0 0 0 0 0 0 
0 0 0 0 0 0 0 0 0 
0 0 0 0 0 0 0 0 0 
0 0 0 0 0 0 0 0 0 
0 0 0 0 0 0 0 0 0 
0 0 0 0 0 0 0 0 0 
0 0 0 0 0 0 0 0 0 
0 0 0 0 0 0 0 0 0 
0 0 0 0 0 0 0 0 0 
0 0 0 0 0 0 0 0 0 
0 0 0 0 0 0 0 0 0 
0 0 0 0 0 0 0 0 0 
0 0 0 0 0 0 0 0 0 
0 0 0 0 0 0 0 0 0 
0 0 0 0 0 0 0 0 0 
0 0 0 0 0 0 0 0 0 
0 0 0 0 0 0 0 0 0 
0 0 0 0 0 0 0 0 0 
0 0 0 0 0 0 0 0 0 
0 0 0 0 0 0 0 0 0 
0 0 0 0 0 0 0 0 0 
0 0 0 0 0 0 0 0 0 
0 0 0 0 0 0 0 0 0 
0 0 0 0 0 0 0 0 0 
0 0 0 0 0 0 0 0 0 
0 0 0 0 0 0 0 0 0 
0 0 0 0 0 0 0 0 0 
0 0 0 0 0 0 0 0 0 
0 0 0 0 0 0 0 0 0 
0 0 0 0 0 0 0 0 0 
0 0 0 0 0 0 0 0 0 
0 0 0 0 0 0 0 0 0 
0 0 0 0 0 0 0 0 0 
0 0 0 0 0 0 0 0 0 
0 0 0 0 0 0 0 0 0 
0 0 0 0 0 0 0 0 0 
0 0 0 0 0 0 0 0 0 
0 0 0 0 0 0 0 0 0 
0 0 0 0 0 0 0 0 0 
0 0 0 0 0 0 0 0 0 
0 0 0 0 0 0 0 0 0 
0 0 0 0 0 0 0 0 0 
0 0 0 0 0 0 0 0 0 
0 0 0 0 0 0 0 0 0 
0 0 0 0 0 0 0 0 0 
0 0 0 0 0 0 0 0 0 
0 0 0 0 0 0 0 0 0 
0 0 0 0 0 0 0 0 0 
0 0 0 0 0 0 0 0 0 
0 0 0 0 0 0 0 0 0 
0 0 0 0 0 0 0 0 0 
0 0 0 0 0 0 0 0 0 
0 0 0 0 0 0 0 0 0 
0 0 0 0 0 0 0 0 0 
0 0 0 0 0 0 0 0 0 
0 0 0 0 0 0 0 0 0 
0 0 0 0 0 0 0 0 0 
0 0 0 0 0 0 0 0 0 
0 0 0 0 0 0 0 0 0 
0 0 0 0 0 0 0 0 0 
0 0 0 0 0 0 0 0 0 
0 0 0 0 0 0 0 0 0 
0 0 0 0 0 0 0 0 0 
0 0 0 0 0 0 0 0 0 
0 0 0 0 0 0 0 0 0 
0 0 0 0 0 0 0 0 0 
0 0 0 0 0 0 0 0 0 
0 0 0 0 0 0 0 0 0 
0 0 0 0 0 0 0 0 0 
0 0 0 0 0 0 0 0 0 
0 0 0 0 0 0 0 0 0 
0 0 0 0 0 0 0 0 0 
0 0 0 0 0 0 0 0 0 
0 0 0 0 0 0 0 0 0 
0 0 0 0 0 0 0 0 0 
0 0 0 0 0 0 0 0 0 
0 0 0 0 0 0 0 0 0 
0 0 0 0 0 0 0 0 0 
0 0 0 0 0 0 0 0 0 
0 0 0 0 0 0 0 0 0 
0 0 0 0 0 0 0 0 0 
0 0 0 0 0 0 0 0 0 
0 0 0 0 0 0 0 0 0 
0 0 0 0 0 0 0 0 0 
0 0 0 0 0 0 0 0 0 
0 0 0 0 0 0 0 0 0 
0 0 0 0 0 0 0 0 0 
0 0 0 0 0 0 0 0 0 
0 0 0 0 0 0 0 0 0 
0 0 0 0 0 0 0 0 0 
0 0 0 0 0 0 0 0 0 
0 0 0 0 0 0 0 0 0 
0 0 0 0 0 0 0 0 0 
0 0 0 0 0 0 0 0 0 
0 0 0 0 0 0 0 0 0 
0 0 0 0 0 0 0 0 0 
0 0 0 0 0 0 0 0 0 
0 0 0 0 0 0 0 0 0 
0 0 0 0 0 0 0 0 0 
0 0 0 0 0 0 0 0 0 
0 0 0 0 0 0 0 0 0 
0 0 0 0 0 0 0 0 0 
0 0 0 0 0 0 0 0 0 
0 0 0 0 0 0 0 0 0 
0 0 0 0 0 0 0 0 0 
0 0 0 0 0 0 0 0 0 
0 0 0 0 0 0 0 0 0 
0 0 0 0 0 0 0 0 0 
0 0 0 0 0 0 0 0 0 
0 0 0 0 0 0 0 0 0 
0 0 0 0 0 0 0 0 0 
0 0 0 0 0 0 0 0 0 
0 0 0 0 0 0 0 0 0 
0 0 0 0 0 0 0 0 0 
0 0 0 0 0 0 0 0 0 
0 0 0 0 0 0 0 0 0 
0 0 0 0 0 0 0 0 0 
0 0 0 0 0 0 0 0 0 
0 0 0 0 0 0 0 0 0 
0 0 0 0 0 0 0 0 0 
0 0 0 0 0 0 0 0 0 
0 0 0 0 0 0 0 0 0 
0 0 0 0 0 0 0 0 0 
0 0 0 0 0 0 0 0 0 
0 0 0 0 0 0 0 0 0 
0 0 0 0 0 0 0 0 0 
0 0 0 0 0 0 0 0 0 
0 0 0 0 0 0 0 0 0 
0 0 0 0 0 0 0 0 0 
0 0 0 0 0 0 0 0 0 
0 0 0 0 0 0 0 0 0 
0 0 0 0 0 0 0 0 0 
0 0 0 0 0 0 0 0 0 
0 0 0 0 0 0 0 0 0 
0 0 0 0 0 0 0 0 0 
0 0 0 0 0 0 0 0 0 
0 0 0 0 0 0 0 0 0 
0 0 0 0 0 0 0 0 0 
0 0 0 0 0 0 0 0 0 
0 0 0 0 0 0 0 0 0 
0 0 0 0 0 0 0 0 0 
0 0 0 0 0 0 0 0 0 
0 0 0 0 0 0 0 0 0 
0 0 0 0 0 0 0 0 0 
0 0 0 0 0 0 0 0 0 
0 0 0 0 0 0 0 0 0 
0 0 0 0 0 0 0 0 0 
0 0 0 0 0 0 0 0 0 
0 0 0 0 0 0 0 0 0 
0 0 0 0 0 0 0 0 0 
0 0 0 0 0 0 0 0 0 
0 0 0 0 0 0 0 0 0 
0 0 0 0 0 0 0 0 0 
0 0 0 0 0 0 0 0 0 
0 0 0 0 0 0 0 0 0 
0 0 0 0 0 0 0 0 0 
0 0 0 0 0 0 0 0 0 
0 0 0 0 0 0 0 0 0 
0 0 0 0 0 0 0 0 0 
0 0 0 0 0 0 0 0 0 
0 0 0 0 0 0 0 0 0 
0 0 0 0 0 0 0 0 0 
0 0 0 0 0 0 0 0 0 
0 0 0 0 0 0 0 0 0 
0 0 0 0 0 0 0 0 0 
0 0 0 0 0 0 0 0 0 
0 0 0 0 0 0 0 0 0 
0 0 0 0 0 0 0 0 0 
0 0 0 0 0 0 0 0 0 
0 0 0 0 0 0 0 0 0 
0 0 0 0 0 0 0 0 0 
0 0 0 0 0 0 0 0 0 
0 0 0 0 0 0 0 0 0 
0 0 0 0 0 0 0 0 0 
0 0 0 0 0 0 0 0 0 
0 0 0 0 0 0 0 0 0 
0 0 0 0 0 0 0 0 0 
0 0 0 0 0 0 0 0 0 
0 0 0 0 0 0 0 0 0 
0 0 0 0 0 0 0 0 0 
0 0 0 0 0 0 0 0 0 
0 0 0 0 0 0 0 0 0 
0 0 0 0 0 0 0 0 0 
0 0 0 0 0 0 0 0 0 
0 0 0 0 0 0 0 0 0 
0 0 0 0 0 0 0 0 0 
0 0 0 0 0 0 0 0 0 
0 0 0 0 0 0 0 0 0 
0 0 0 0 0 0 0 0 0 
0 0 0 0 0 0 0 0 0 
0 0 0 0 0 0 0 0 0 
0 0 0 0 0 0 0 0 0 
0 0 0 0 0 0 0 0 0 
0 0 0 0 0 0 0 0 0 
0 0 0 0 0 0 0 0 0 
0 0 0 0 0 0 0 0 0 
0 0 0 0 0 0 0 0 0 
0 0 0 0 0 0 0 0 0 
0 0 0 0 0 0 0 0 0 
0 0 0 0 0 0 0 0 0 
0 0 0 0 0 0 0 0 0 
0 0 0 0 0 0 0 0 0 
0 0 0 0 0 0 0 0 0 
0 0 0 0 0 0 0 0 0 
0 0 0 0 0 0 0 0 0 
0 0 0 0 0 0 0 0 0 
0 0 0 0 0 0 0 0 0 
0 0 0 0 0 0 0 0 0 
0 0 0 0 0 0 0 0 0 
0 0 0 0 0 0 0 0 0 
0 0 0 0 0 0 0 0 0 
0 0 0 0 0 0 0 0 0 
0 0 0 0 0 0 0 0 0 
0 0 0 0 0 0 0 0 0 
0 0 0 0 0 0 0 0 0 
0 0 0 0 0 0 0 0 0 
0 0 0 0 0 0 0 0 0 
0 0 0 0 0 0 0 0 0 
0 0 0 0 0 0 0 0 0 
0 0 0 0 0 0 0 0 0 
0 0 0 0 0 0 0 0 0 
0 0 0 0 0 0 0 0 0 
0 0 0 0 0 0 0 0 0 
0 0 0 0 0 0 0 0 0 
0 0 0 0 0 0 0 0 0 
0 0 0 0 0 0 0 0 0 
0 0 0 0 0 0 0 0 0 
0 0 0 0 0 0 0 0 0 
0 0 0 0 0 0 0 0 0 
0 0 0 0 0 0 0 0 0 
0 0 0 0 0 0 0 0 0 
0 0 0 0 0 0 0 0 0 
0 0 0 0 0 0 0 0 0 
0 0 0 0 0 0 0 0 0 
0 0 0 0 0 0 0 0 0 
0 0 0 0 0 0 0 0 0 
0 0 0 0 0 0 0 0 0 
0 0 0 0 0 0 0 0 0 
0 0 0 0 0 0 0 0 0 
0 0 0 0 0 0 0 0 0 
0 0 0 0 0 0 0 0 0 
0 0 0 0 0 0 0 0 0 
0 0 0 0 0 0 0 0 0 
0 0 0 0 0 0 0 0 0 
0 0 0 0 0 0 0 0 0 
0 0 0 0 0 0 0 0 0 
0 0 0 0 0 0 0 0 0 
0 0 0 0 0 0 0 0 0 
0 0 0 0 0 0 0 0 0 
0 0 0 0 0 0 0 0 0 
0 0 0 0 0 0 0 0 0 
0 0 0 0 0 0 0 0 0 
0 0 0 0 0 0 0 0 0 
0 0 0 0 0 0 0 0 0 
0 0 0 0 0 0 0 0 0 
0 0 0 0 0 0 0 0 0 
0 0 0 0 0 0 0 0 0 
0 0 0 0 0 0 0 0 0 
0 0 0 0 0 0 0 0 0 
0 0 0 0 0 0 0 0 0 
0 0 0 0 0 0 0 0 0 
0 0 0 0 0 0 0 0 0 
0 0 0 0 0 0 0 0 0 
0 0 0 0 0 0 0 0 0 
0 0 0 0 0 0 0 0 0 
0 0 0 0 0 0 0 0 0 
0 0 0 0 0 0 0 0 0 
0 0 0 0 0 0 0 0 0 
0 0 0 0 0 0 0 0 0 
0 0 0 0 0 0 0 0 0 
0 0 0 0 0 0 0 0 0 
0 0 0 0 0 0 0 0 0 
0 0 0 0 0 0 0 0 0 
0 0 0 0 0 0 0 0 0 
0 0 0 0 0 0 0 0 0 
0 0 0 0 0 0 0 0 0 
0 0 0 0 0 0 0 0 0 
0 0 0 0 0 0 0 0 0 
0 0 0 0 0 0 0 0 0 
0 0 0 0 0 0 0 0 0 
0 0 0 0 0 0 0 0 0 
0 0 0 0 0 0 0 0 0 
0 0 0 0 0 0 0 0 0 
0 0 0 0 0 0 0 0 0 
0 0 0 0 0 0 0 0 0 
0 0 0 0 0 0 0 0 0 
0 0 0 0 0 0 0 0 0 
0 0 0 0 0 0 0 0 0 
0 0 0 0 0 0 0 0 0 
0 0 0 0 0 0 0 0 0 
0 0 0 0 0 0 0 0 0 
0 0 0 0 0 0 0 0 0 
0 0 0 0 0 0 0 0 0 
0 0 0 0 0 0 0 0 0 
0 0 0 0 0 0 0 0 0 
0 0 0 0 0 0 0 0 0 
0 0 0 0 0 0 0 0 0 
0 0 0 0 0 0 0 0 0 
0 0 0 0 0 0 0 0 0 
0 0 0 0 0 0 0 0 0 
0 0 0 0 0 0 0 0 0 
0 0 0 0 0 0 0 0 0 
0 0 0 0 0 0 0 0 0 
0 0 0 0 0 0 0 0 0 
0 0 0 0 0 0 0 0 0 
0 0 0 0 0 0 0 0 0 
0 0 0 0 0 0 0 0 0 
0 0 0 0 0 0 0 0 0 
0 0 0 0 0 0 0 0 0 
0 0 0 0 0 0 0 0 0 
0 0 0 0 0 0 0 0 0 
0 0 0 0 0 0 0 0 0 
0 0 0 0 0 0 0 0 0 
0 0 0 0 0 0 0 0 0 
0 0 0 0 0 0 0 0 0 
0 0 0 0 0 0 0 0 0 
0 0 0 0 0 0 0 0 0 
0 0 0 0 0 0 0 0 0 
0 0 0 0 0 0 0 0 0 
0 0 0 0 0 0 0 0 0 
0 0 0 0 0 0 0 0 0 
0 0 0 0 0 0 0 0 0 
0 0 0 0 0 0 0 0 0 
0 0 0 0 0 0 0 0 0 
0 0 0 0 0 0 0 0 0 
0 0 0 0 0 0 0 0 0 
0 0 0 0 0 0 0 0 0 
0 0 0 0 0 0 0 0 0 
0 0 0 0 0 0 0 0 0 
0 0 0 0 0 0 0 0 0 
0 0 0 0 0 0 0 0 0 
0 0 0 0 0 0 0 0 0 
0 0 0 0 0 0 0 0 0 
0 0 0 0 0 0 0 0 0 
0 0 0 0 0 0 0 0 0 
0 0 0 0 0 0 0 0 0 
0 0 0 0 0 0 0 0 0 
0 0 0 0 0 0 0 0 0 
0 0 0 0 0 0 0 0 0 
0 0 0 0 0 0 0 0 0 
0 0 0 0 0 0 0 0 0 
0 0 0 0 0 0 0 0 0 
0 0 0 0 0 0 0 0 0 
0 0 0 0 0 0 0 0 0 
0 0 0 0 0 0 0 0 0 
0 0 0 0 0 0 0 0 0 
0 0 0 0 0 0 0 0 0 
0 0 0 0 0 0 0 0 0 
0 0 0 0 0 0 0 0 0 
0 0 0 0 0 0 0 0 0 
0 0 0 0 0 0 0 0 0 
0 0 0 0 0 0 0 0 0 
0 0 0 0 0 0 0 0 0 
0 0 0 0 0 0 0 0 0 
0 0 0 0 0 0 0 0 0 
0 0 0 0 0 0 0 0 0 
0 0 0 0 0 0 0 0 0 
0 0 0 0 0 0 0 0 0 
0 0 0 0 0 0 0 0 0 
0 0 0 0 0 0 0 0 0 
0 0 0 0 0 0 0 0 0 
0 0 0 0 0 0 0 0 0 
0 0 0 0 0 0 0 0 0 
0 0 0 0 0 0 0 0 0 
0 0 0 0 0 0 0 0 0 
0 0 0 0 0 0 0 0 0 
0 0 0 0 0 0 0 0 0 
0 0 0 0 0 0 0 0 0 
0 0 0 0 0 0 0 0 0 
0 0 0 0 0 0 0 0 0 
0 0 0 0 0 0 0 0 0 
0 0 0 0 0 0 0 0 0 
0 0 0 0 0 0 0 0 0 
0 0 0 0 0 0 0 0 0 
0 0 0 0 0 0 0 0 0 
0 0 0 0 0 0 0 0 0 
0 0 0 0 0 0 0 0 0 
0 0 0 0 0 0 0 0 0 
0 0 0 0 0 0 0 0 0 
0 0 0 0 0 0 0 0 0 
0 0 0 0 0 0 0 0 0 
0 0 0 0 0 0 0 0 0 
0 0 0 0 0 0 0 0 0 
0 0 0 0 0 0 0 0 0 
0 0 0 0 0 0 0 0 0 
0 0 0 0 0 0 0 0 0 
0 0 0 0 0 0 0 0 0 
0 0 0 0 0 0 0 0 0 
0 0 0 0 0 0 0 0 0 
0 0 0 0 0 0 0 0 0 
0 0 0 0 0 0 0 0 0 
0 0 0 0 0 0 0 0 0 
0 0 0 0 0 0 0 0 0 
0 0 0 0 0 0 0 0 0 
0 0 0 0 0 0 0 0 0 
0 0 0 0 0 0 0 0 0 
0 0 0 0 0 0 0 0 0 
0 0 0 0 0 0 0 0 0 
0 0 0 0 0 0 0 0 0 
0 0 0 0 0 0 0 0 0 
0 0 0 0 0 0 0 0 0 
0 0 0 0 0 0 0 0 0 
0 0 0 0 0 0 0 0 0 
0 0 0 0 0 0 0 0 0 
0 0 0 0 0 0 0 0 0 
0 0 0 0 0 0 0 0 0 
0 0 0 0 0 0 0 0 0 
0 0 0 0 0 0 0 0 0 
0 0 0 0 0 0 0 0 0 
0 0 0 0 0 0 0 0 0 
0 0 0 0 0 0 0 0 0 
0 0 0 0 0 0 0 0 0 
0 0 0 0 0 0 0 0 0 
0 0 0 0 0 0 0 0 0 
0 0 0 0 0 0 0 0 0 
0 0 0 0 0 0 0 0 0 
0 0 0 0 0 0 0 0 0 
0 0 0 0 0 0 0 0 0 
0 0 0 0 0 0 0 0 0 
0 0 0 0 0 0 0 0 0 
0 0 0 0 0 0 0 0 0 
0 0 0 0 0 0 0 0 0 
0 0 0 0 0 0 0 0 0 
0 0 0 0 0 0 0 0 0 
0 0 0 0 0 0 0 0 0 
0 0 0 0 0 0 0 0 0 
0 0 0 0 0 0 0 0 0 
0 0 0 0 0 0 0 0 0 
0 0 0 0 0 0 0 0 0 
0 0 0 0 0 0 0 0 0 
0 0 0 0 0 0 0 0 0 
0 0 0 0 0 0 0 0 0 
0 0 0 0 0 0 0 0 0 
0 0 0 0 0 0 0 0 0 
0 0 0 0 0 0 0 0 0 
0 0 0 0 0 0 0 0 0 
0 0 0 0 0 0 0 0 0 
0 0 0 0 0 0 0 0 0 
0 0 0 0 0 0 0 0 0 
0 0 0 0 0 0 0 0 0 
0 0 0 0 0 0 0 0 0 
0 0 0 0 0 0 0 0 0 
0 0 0 0 0 0 0 0 0 
0 0 0 0 0 0 0 0 0 
0 0 0 0 0 0 0 0 0 
0 0 0 0 0 0 0 0 0 
0 0 0 0 0 0 0 0 0 
0 0 0 0 0 0 0 0 0 
0 0 0 0 0 0 0 0 0 
0 0 0 0 0 0 0 0 0 
0 0 0 0 0 0 0 0 0 
0 0 0 0 0 0 0 0 0 
0 0 0 0 0 0 0 0 0 
0 0 0 0 0 0 0 0 0 
0 0 0 0 0 0 0 0 0 
0 0 0 0 0 0 0 0 0 
0 0 0 0 0 0 0 0 0 
0 0 0 0 0 0 0 0 0 
0 0 0 0 0 0 0 0 0 
0 0 0 0 0 0 0 0 0 
0 0 0 0 0 0 0 0 0 
0 0 0 0 0 0 0 0 0 
0 0 0 0 0 0 0 0 0 
0 0 0 0 0 0 0 0 0 
0 0 0 0 0 0 0 0 0 
0 0 0 0 0 0 0 0 0 
0 0 0 0 0 0 0 0 0 
0 0 0 0 0 0 0 0 0 
0 0 0 0 0 0 0 0 0 
0 0 0 0 0 0 0 0 0 
0 0 0 0 0 0 0 0 0 
0 0 0 0 0 0 0 0 0 
0 0 0 0 0 0 0 0 0 
0 0 0 0 0 0 0 0 0 
0 0 0 0 0 0 0 0 0 
0 0 0 0 0 0 0 0 0 
0 0 0 0 0 0 0 0 0 
0 0 0 0 0 0 0 0 0 
0 0 0 0 0 0 0 0 0 
0 0 0 0 0 0 0 0 0 
0 0 0 0 0 0 0 0 0 
0 0 0 0 0 0 0 0 0 
0 0 0 0 0 0 0 0 0 
0 0 0 0 0 0 0 0 0 
0 0 0 0 0 0 0 0 0 
0 0 0 0 0 0 0 0 0 
0 0 0 0 0 0 0 0 0 
0 0 0 0 0 0 0 0 0 
0 0 0 0 0 0 0 0 0 
0 0 0 0 0 0 0 0 0 
0 0 0 0 0 0 0 0 0 
0 0 0 0 0 0 0 0 0 
0 0 0 0 0 0 0 0 0 
0 0 0 0 0 0 0 0 0 
0 0 0 0 0 0 0 0 0 
0 0 0 0 0 0 0 0 0 
0 0 0 0 0 0 0 0 0 
0 0 0 0 0 0 0 0 0 
0 0 0 0 0 0 0 0 0 
0 0 0 0 0 0 0 0 0 
0 0 0 0 0 0 0 0 0 
0 0 0 0 0 0 0 0 0 
0 0 0 0 0 0 0 0 0 
0 0 0 0 0 0 0 0 0 
0 0 0 0 0 0 0 0 0 
0 0 0 0 0 0 0 0 0 
0 0 0 0 0 0 0 0 0 
0 0 0 0 0 0 0 0 0 
0 0 0 0 0 0 0 0 0 
0 0 0 0 0 0 0 0 0 
0 0 0 0 0 0 0 0 0 
0 0 0 0 0 0 0 0 0 
0 0 0 0 0 0 0 0 0 
0 0 0 0 0 0 0 0 0 
0 0 0 0 0 0 0 0 0 
0 0 0 0 0 0 0 0 0 
0 0 0 0 0 0 0 0 0 
0 0 0 0 0 0 0 0 0 
0 0 0 0 0 0 0 0 0 
0 0 0 0 0 0 0 0 0 
0 0 0 0 0 0 0 0 0 
0 0 0 0 0 0 0 0 0 
0 0 0 0 0 0 0 0 0 
0 0 0 0 0 0 0 0 0 
0 0 0 0 0 0 0 0 0 
0 0 0 0 0 0 0 0 0 
0 0 0 0 0 0 0 0 0 
0 0 0 0 0 0 0 0 0 
0 0 0 0 0 0 0 0 0 
0 0 0 0 0 0 0 0 0 
0 0 0 0 0 0 0 0 0 
0 0 0 0 0 0 0 0 0 
0 0 0 0 0 0 0 0 0 
0 0 0 0 0 0 0 0 0 
0 0 0 0 0 0 0 0 0 
0 0 0 0 0 0 0 0 0 
0 0 0 0 0 0 0 0 0 
0 0 0 0 0 0 0 0 0 
0 0 0 0 0 0 0 0 0 
0 0 0 0 0 0 0 0 0 
0 0 0 0 0 0 0 0 0 
0 0 0 0 0 0 0 0 0 
0 0 0 0 0 0 0 0 0 
0 0 0 0 0 0 0 0 0 
0 0 0 0 0 0 0 0 0 
0 0 0 0 0 0 0 0 0 
0 0 0 0 0 0 0 0 0 
0 0 0 0 0 0 0 0 0 
0 0 0 0 0 0 0 0 0 
0 0 0 0 0 0 0 0 0 
0 0 0 0 0 0 0 0 0 
0 0 0 0 0 0 0 0 0 
0 0 0 0 0 0 0 0 0 
0 0 0 0 0 0 0 0 0 
0 0 0 0 0 0 0 0 0 
0 0 0 0 0 0 0 0 0 
0 0 0 0 0 0 0 0 0 
0 0 0 0 0 0 0 0 0 
0 0 0 0 0 0 0 0 0 
0 0 0 0 0 0 0 0 0 
0 0 0 0 0 0 0 0 0 
0 0 0 0 0 0 0 0 0 
0 0 0 0 0 0 0 0 0 
0 0 0 0 0 0 0 0 0 
0 0 0 0 0 0 0 0 0 
0 0 0 0 0 0 0 0 0 
0 0 0 0 0 0 0 0 0 
0 0 0 0 0 0 0 0 0 
0 0 0 0 0 0 0 0 0 
0 0 0 0 0 0 0 0 0 
0 0 0 0 0 0 0 0 0 
0 0 0 0 0 0 0 0 0 
0 0 0 0 0 0 0 0 0 
0 0 0 0 0 0 0 0 0 
0 0 0 0 0 0 0 0 0 
0 0 0 0 0 0 0 0 0 
0 0 0 0 0 0 0 0 0 
0 0 0 0 0 0 0 0 0 
0 0 0 0 0 0 0 0 0 
0 0 0 0 0 0 0 0 0 
0 0 0 0 0 0 0 0 0 
0 0 0 0 0 0 0 0 0 
0 0 0 0 0 0 0 0 0 
0 0 0 0 0 0 0 0 0 
0 0 0 0 0 0 0 0 0 
0 0 0 0 0 0 0 0 0 
0 0 0 0 0 0 0 0 0 
0 0 0 0 0 0 0 0 0 
0 0 0 0 0 0 0 0 0 
0 0 0 0 0 0 0 0 0 
0 0 0 0 0 0 0 0 0 
0 0 0 0 0 0 0 0 0 
0 0 0 0 0 0 0 0 0 
0 0 0 0 0 0 0 0 0 
0 0 0 0 0 0 0 0 0 
0 0 0 0 0 0 0 0 0 
0 0 0 0 0 0 0 0 0 
0 0 0 0 0 0 0 0 0 
0 0 0 0 0 0 0 0 0 
0 0 0 0 0 0 0 0 0 
0 0 0 0 0 0 0 0 0 
0 0 0 0 0 0 0 0 0 
0 0 0 0 0 0 0 0 0 
0 0 0 0 0 0 0 0 0 
0 0 0 0 0 0 0 0 0 
0 0 0 0 0 0 0 0 0 
0 0 0 0 0 0 0 0 0 
0 0 0 0 0 0 0 0 0 
0 0 0 0 0 0 0 0 0 
0 0 0 0 0 0 0 0 0 
0 0 0 0 0 0 0 0 0 
0 0 0 0 0 0 0 0 0 
0 0 0 0 0 0 0 0 0 
0 0 0 0 0 0 0 0 0 
0 0 0 0 0 0 0 0 0 
0 0 0 0 0 0 0 0 0 
0 0 0 0 0 0 0 0 0 
0 0 0 0 0 0 0 0 0 
0 0 0 0 0 0 0 0 0 
0 0 0 0 0 0 0 0 0 
0 0 0 0 0 0 0 0 0 
0 0 0 0 0 0 0 0 0 
0 0 0 0 0 0 0 0 0 
0 0 0 0 0 0 0 0 0 
0 0 0 0 0 0 0 0 0 
0 0 0 0 0 0 0 0 0 
0 0 0 0 0 0 0 0 0 
0 0 0 0 0 0 0 0 0 
0 0 0 0 0 0 0 0 0 
0 0 0 0 0 0 0 0 0 
0 0 0 0 0 0 0 0 0 
0 0 0 0 0 0 0 0 0 
0 0 0 0 0 0 0 0 0 
0 0 0 0 0 0 0 0 0 
0 0 0 0 0 0 0 0 0 
0 0 0 0 0 0 0 0 0 
0 0 0 0 0 0 0 0 0 
0 0 0 0 0 0 0 0 0 
0 0 0 0 0 0 0 0 0 
0 0 0 0 0 0 0 0 0 
0 0 0 0 0 0 0 0 0 
0 0 0 0 0 0 0 0 0 
0 0 0 0 0 0 0 0 0 
0 0 0 0 0 0 0 0 0 
0 0 0 0 0 0 0 0 0 
0 0 0 0 0 0 0 0 0 
0 0 0 0 0 0 0 0 0 
0 0 0 0 0 0 0 0 0 
0 0 0 0 0 0 0 0 0 
0 0 0 0 0 0 0 0 0 
0 0 0 0 0 0 0 0 0 
0 0 0 0 0 0 0 0 0 
0 0 0 0 0 0 0 0 0 
0 0 0 0 0 0 0 0 0 
0 0 0 0 0 0 0 0 0 
0 0 0 0 0 0 0 0 0 
0 0 0 0 0 0 0 0 0 
0 0 0 0 0 0 0 0 0 
0 0 0 0 0 0 0 0 0 
0 0 0 0 0 0 0 0 0 
0 0 0 0 0 0 0 0 0 
0 0 0 0 0 0 0 0 0 
0 0 0 0 0 0 0 0 0 
0 0 0 0 0 0 0 0 0 
0 0 0 0 0 0 0 0 0 
0 0 0 0 0 0 0 0 0 
0 0 0 0 0 0 0 0 0 
0 0 0 0 0 0 0 0 0 
0 0 0 0 0 0 0 0 0 
0 0 0 0 0 0 0 0 0 
0 0 0 0 0 0 0 0 0 
0 0 0 0 0 0 0 0 0 
0 0 0 0 0 0 0 0 0 
0 0 0 0 0 0 0 0 0 
0 0 0 0 0 0 0 0 0 
0 0 0 0 0 0 0 0 0 
0 0 0 0 0 0 0 0 0 
0 0 0 0 0 0 0 0 0 
0 0 0 0 0 0 0 0 0 
0 0 0 0 0 0 0 0 0 
0 0 0 0 0 0 0 0 0 
0 0 0 0 0 0 0 0 0 
0 0 0 0 0 0 0 0 0 
0 0 0 0 0 0 0 0 0 
0 0 0 0 0 0 0 0 0 
0 0 0 0 0 0 0 0 0 
0 0 0 0 0 0 0 0 0 
0 0 0 0 0 0 0 0 0 
0 0 0 0 0 0 0 0 0 
0 0 0 0 0 0 0 0 0 
0 0 0 0 0 0 0 0 0 
0 0 0 0 0 0 0 0 0 
0 0 0 0 0 0 0 0 0 
0 0 0 0 0 0 0 0 0 
0 0 0 0 0 0 0 0 0 
0 0 0 0 0 0 0 0 0 
0 0 0 0 0 0 0 0 0 
0 0 0 0 0 0 0 0 0 
0 0 0 0 0 0 0 0 0 
0 0 0 0 0 0 0 0 0 
0 0 0 0 0 0 0 0 0 
0 0 0 0 0 0 0 0 0 
0 0 0 0 0 0 0 0 0 
0 0 0 0 0 0 0 0 0 
0 0 0 0 0 0 0 0 0 
0 0 0 0 0 0 0 0 0 
0 0 0 0 0 0 0 0 0 
0 0 0 0 0 0 0 0 0 
0 0 0 0 0 0 0 0 0 
0 0 0 0 0 0 0 0 0 
0 0 0 0 0 0 0 0 0 
0 0 0 0 0 0 0 0 0 
0 0 0 0 0 0 0 0 0 
0 0 0 0 0 0 0 0 0 
0 0 0 0 0 0 0 0 0 
0 0 0 0 0 0 0 0 0 
0 0 0 0 0 0 0 0 0 
0 0 0 0 0 0 0 0 0 
0 0 0 0 0 0 0 0 0 
0 0 0 0 0 0 0 0 0 
0 0 0 0 0 0 0 0 0 
0 0 0 0 0 0 0 0 0 
0 0 0 0 0 0 0 0 0 
0 0 0 0 0 0 0 0 0 
0 0 0 0 0 0 0 0 0 
0 0 0 0 0 0 0 0 0 
0 0 0 0 0 0 0 0 0 
0 0 0 0 0 0 0 0 0 
0 0 0 0 0 0 0 0 0 
0 0 0 0 0 0 0 0 0 
0 0 0 0 0 0 0 0 0 
0 0 0 0 0 0 0 0 0 
0 0 0 0 0 0 0 0 0 
0 0 0 0 0 0 0 0 0 
0 0 0 0 0 0 0 0 0 
0 0 0 0 0 0 0 0 0 
0 0 0 0 0 0 0 0 0 
0 0 0 0 0 0 0 0 0 
0 0 0 0 0 0 0 0 0 
0 0 0 0 0 0 0 0 0 
0 0 0 0 0 0 0 0 0 
0 0 0 0 0 0 0 0 0 
0 0 0 0 0 0 0 0 0 
0 0 0 0 0 0 0 0 0 
0 0 0 0 0 0 0 0 0 
0 0 0 0 0 0 0 0 0 
0 0 0 0 0 0 0 0 0 
0 0 0 0 0 0 0 0 0 
0 0 0 0 0 0 0 0 0 
0 0 0 0 0 0 0 0 0 
0 0 0 0 0 0 0 0 0 
0 0 0 0 0 0 0 0 0 
0 0 0 0 0 0 0 0 0 
0 0 0 0 0 0 0 0 0 
0 0 0 0 0 0 0 0 0 
0 0 0 0 0 0 0 0 0 
0 0 0 0 0 0 0 0 0 
0 0 0 0 0 0 0 0 0 
0 0 0 0 0 0 0 0 0 
0 0 0 0 0 0 0 0 0 
0 0 0 0 0 0 0 0 0 
0 0 0 0 0 0 0 0 0 
0 0 0 0 0 0 0 0 0 
0 0 0 0 0 0 0 0 0 
0 0 0 0 0 0 0 0 0 
0 0 0 0 0 0 0 0 0 
0 0 0 0 0 0 0 0 0 
0 0 0 0 0 0 0 0 0 
0 0 0 0 0 0 0 0 0 
0 0 0 0 0 0 0 0 0 
0 0 0 0 0 0 0 0 0 
0 0 0 0 0 0 0 0 0 
0 0 0 0 0 0 0 0 0 
0 0 0 0 0 0 0 0 0 
0 0 0 0 0 0 0 0 0 
0 0 0 0 0 0 0 0 0 
0 0 0 0 0 0 0 0 0 
0 0 0 0 0 0 0 0 0 
0 0 0 0 0 0 0 0 0 
0 0 0 0 0 0 0 0 0 
0 0 0 0 0 0 0 0 0 
0 0 0 0 0 0 0 0 0 
0 0 0 0 0 0 0 0 0 
0 0 0 0 0 0 0 0 0 
0 0 0 0 0 0 0 0 0 
0 0 0 0 0 0 0 0 0 
0 0 0 0 0 0 0 0 0 
0 0 0 0 0 0 0 0 0 
0 0 0 0 0 0 0 0 0 
0 0 0 0 0 0 0 0 0 
0 0 0 0 0 0 0 0 0 
0 0 0 0 0 0 0 0 0 
0 0 0 0 0 0 0 0 0 
0 0 0 0 0 0 0 0 0 
0 0 0 0 0 0 0 0 0 
0 0 0 0 0 0 0 0 0 
0 0 0 0 0 0 0 0 0 
0 0 0 0 0 0 0 0 0 
0 0 0 0 0 0 0 0 0 
0 0 0 0 0 0 0 0 0 
0 0 0 0 0 0 0 0 0 
0 0 0 0 0 0 0 0 0 
0 0 0 0 0 0 0 0 0 
0 0 0 0 0 0 0 0 0 
0 0 0 0 0 0 0 0 0 
0 0 0 0 0 0 0 0 0 
0 0 0 0 0 0 0 0 0 
0 0 0 0 0 0 0 0 0 
0 0 0 0 0 0 0 0 0 
0 0 0 0 0 0 0 0 0 
0 0 0 0 0 0 0 0 0 
0 0 0 0 0 0 0 0 0 
0 0 0 0 0 0 0 0 0 
0 0 0 0 0 0 0 0 0 
0 0 0 0 0 0 0 0 0 
0 0 0 0 0 0 0 0 0 
0 0 0 0 0 0 0 0 0 
0 0 0 0 0 0 0 0 0 
0 0 0 0 0 0 0 0 0 
0 0 0 0 0 0 0 0 0 
0 0 0 0 0 0 0 0 0 
0 0 0 0 0 0 0 0 0 
0 0 0 0 0 0 0 0 0 
0 0 0 0 0 0 0 0 0 
0 0 0 0 0 0 0 0 0 
0 0 0 0 0 0 0 0 0 
0 0 0 0 0 0 0 0 0 
0 0 0 0 0 0 0 0 0 
0 0 0 0 0 0 0 0 0 
0 0 0 0 0 0 0 0 0 
0 0 0 0 0 0 0 0 0 
0 0 0 0 0 0 0 0 0 
0 0 0 0 0 0 0 0 0 
0 0 0 0 0 0 0 0 0 
0 0 0 0 0 0 0 0 0 
0 0 0 0 0 0 0 0 0 
0 0 0 0 0 0 0 0 0 
0 0 0 0 0 0 0 0 0 
0 0 0 0 0 0 0 0 0 
0 0 0 0 0 0 0 0 0 
0 0 0 0 0 0 0 0 0 
0 0 0 0 0 0 0 0 0 
0 0 0 0 0 0 0 0 0 
0 0 0 0 0 0 0 0 0 
0 0 0 0 0 0 0 0 0 
0 0 0 0 0 0 0 0 0 
0 0 0 0 0 0 0 0 0 
0 0 0 0 0 0 0 0 0 
0 0 0 0 0 0 0 0 0 
0 0 0 0 0 0 0 0 0 
0 0 0 0 0 0 0 0 0 
0 0 0 0 0 0 0 0 0 
0 0 0 0 0 0 0 0 0 
0 0 0 0 0 0 0 0 0 
0 0 0 0 0 0 0 0 0 
0 0 0 0 0 0 0 0 0 
0 0 0 0 0 0 0 0 0 
0 0 0 0 0 0 0 0 0 
0 0 0 0 0 0 0 0 0 
0 0 0 0 0 0 0 0 0 
0 0 0 0 0 0 0 0 0 
0 0 0 0 0 0 0 0 0 
0 0 0 0 0 0 0 0 0 
0 0 0 0 0 0 0 0 0 
0 0 0 0 0 0 0 0 0 
0 0 0 0 0 0 0 0 0 
0 0 0 0 0 0 0 0 0 
0 0 0 0 0 0 0 0 0 
0 0 0 0 0 0 0 0 0 
0 0 0 0 0 0 0 0 0 
0 0 0 0 0 0 0 0 0 
0 0 0 0 0 0 0 0 0 
0 0 0 0 0 0 0 0 0 
0 0 0 0 0 0 0 0 0 
0 0 0 0 0 0 0 0 0 
0 0 0 0 0 0 0 0 0 
0 0 0 0 0 0 0 0 0 
0 0 0 0 0 0 0 0 0 
0 0 0 0 0 0 0 0 0 
0 0 0 0 0 0 0 0 0 
0 0 0 0 0 0 0 0 0 
0 0 0 0 0 0 0 0 0 
0 0 0 0 0 0 0 0 0 
0 0 0 0 0 0 0 0 0 
0 0 0 0 0 0 0 0 0 
0 0 0 0 0 0 0 0 0 
0 0 0 0 0 0 0 0 0 
0 0 0 0 0 0 0 0 0 
0 0 0 0 0 0 0 0 0 
0 0 0 0 0 0 0 0 0 
0 0 0 0 0 0 0 0 0 
0 0 0 0 0 0 0 0 0 
0 0 0 0 0 0 0 0 0 
0 0 0 0 0 0 0 0 0 
0 0 0 0 0 0 0 0 0 
0 0 0 0 0 0 0 0 0 
0 0 0 0 0 0 0 0 0 
0 0 0 0 0 0 0 0 0 
0 0 0 0 0 0 0 0 0 
0 0 0 0 0 0 0 0 0 
0 0 0 0 0 0 0 0 0 
0 0 0 0 0 0 0 0 0 
0 0 0 0 0 0 0 0 0 
0 0 0 0 0 0 0 0 0 
0 0 0 0 0 0 0 0 0 
0 0 0 0 0 0 0 0 0 
0 0 0 0 0 0 0 0 0 
0 0 0 0 0 0 0 0 0 
0 0 0 0 0 0 0 0 0 
0 0 0 0 0 0 0 0 0 
0 0 0 0 0 0 0 0 0 
0 0 0 0 0 0 0 0 0 
0 0 0 0 0 0 0 0 0 
0 0 0 0 0 0 0 0 0 
0 0 0 0 0 0 0 0 0 
0 0 0 0 0 0 0 0 0 
0 0 0 0 0 0 0 0 0 
0 0 0 0 0 0 0 0 0 
0 0 0 0 0 0 0 0 0 
0 0 0 0 0 0 0 0 0 
0 0 0 0 0 0 0 0 0 
0 0 0 0 0 0 0 0 0 
0 0 0 0 0 0 0 0 0 
0 0 0 0 0 0 0 0 0 
0 0 0 0 0 0 0 0 0 
0 0 0 0 0 0 0 0 0 
0 0 0 0 0 0 0 0 0 
0 0 0 0 0 0 0 0 0 
0 0 0 0 0 0 0 0 0 
0 0 0 0 0 0 0 0 0 
0 0 0 0 0 0 0 0 0 
0 0 0 0 0 0 0 0 0 
0 0 0 0 0 0 0 0 0 
0 0 0 0 0 0 0 0 0 
0 0 0 0 0 0 0 0 0 
0 0 0 0 0 0 0 0 0 
0 0 0 0 0 0 0 0 0 
0 0 0 0 0 0 0 0 0 
0 0 0 0 0 0 0 0 0 
0 0 0 0 0 0 0 0 0 
0 0 0 0 0 0 0 0 0 
0 0 0 0 0 0 0 0 0 
0 0 0 0 0 0 0 0 0 
0 0 0 0 0 0 0 0 0 
0 0 0 0 0 0 0 0 0 
0 0 0 0 0 0 0 0 0 
0 0 0 0 0 0 0 0 0 
0 0 0 0 0 0 0 0 0 
0 0 0 0 0 0 0 0 0 
0 0 0 0 0 0 0 0 0 
0 0 0 0 0 0 0 0 0 
0 0 0 0 0 0 0 0 0 
0 0 0 0 0 0 0 0 0 
0 0 0 0 0 0 0 0 0 
0 0 0 0 0 0 0 0 0 
0 0 0 0 0 0 0 0 0 
0 0 0 0 0 0 0 0 0 
0 0 0 0 0 0 0 0 0 
0 0 0 0 0 0 0 0 0 
0 0 0 0 0 0 0 0 0 
0 0 0 0 0 0 0 0 0 
0 0 0 0 0 0 0 0 0 
0 0 0 0 0 0 0 0 0 
0 0 0 0 0 0 0 0 0 
0 0 0 0 0 0 0 0 0 
0 0 0 0 0 0 0 0 0 
0 0 0 0 0 0 0 0 0 
0 0 0 0 0 0 0 0 0 
0 0 0 0 0 0 0 0 0 
0 0 0 0 0 0 0 0 0 
0 0 0 0 0 0 0 0 0 
0 0 0 0 0 0 0 0 0 
0 0 0 0 0 0 0 0 0 
0 0 0 0 0 0 0 0 0 
0 0 0 0 0 0 0 0 0 
0 0 0 0 0 0 0 0 0 
0 0 0 0 0 0 0 0 0 
0 0 0 0 0 0 0 0 0 
0 0 0 0 0 0 0 0 0 
0 0 0 0 0 0 0 0 0 
0 0 0 0 0 0 0 0 0 
0 0 0 0 0 0 0 0 0 
0 0 0 0 0 0 0 0 0 
0 0 0 0 0 0 0 0 0 
0 0 0 0 0 0 0 0 0 
0 0 0 0 0 0 0 0 0 
0 0 0 0 0 0 0 0 0 
0 0 0 0 0 0 0 0 0 
0 0 0 0 0 0 0 0 0 
0 0 0 0 0 0 0 0 0 
0 0 0 0 0 0 0 0 0 
0 0 0 0 0 0 0 0 0 
0 0 0 0 0 0 0 0 0 
0 0 0 0 0 0 0 0 0 
0 0 0 0 0 0 0 0 0 
0 0 0 0 0 0 0 0 0 
0 0 0 0 0 0 0 0 0 
0 0 0 0 0 0 0 0 0 
0 0 0 0 0 0 0 0 0 
0 0 0 0 0 0 0 0 0 
0 0 0 0 0 0 0 0 0 
0 0 0 0 0 0 0 0 0 
0 0 0 0 0 0 0 0 0 
0 0 0 0 0 0 0 0 0 
0 0 0 0 0 0 0 0 0 
0 0 0 0 0 0 0 0 0 
0 0 0 0 0 0 0 0 0 
0 0 0 0 0 0 0 0 0 
0 0 0 0 0 0 0 0 0 
0 0 0 0 0 0 0 0 0 
0 0 0 0 0 0 0 0 0 
0 0 0 0 0 0 0 0 0 
0 0 0 0 0 0 0 0 0 
0 0 0 0 0 0 0 0 0 
0 0 0 0 0 0 0 0 0 
0 0 0 0 0 0 0 0 0 
0 0 0 0 0 0 0 0 0 
0 0 0 0 0 0 0 0 0 
0 0 0 0 0 0 0 0 0 
0 0 0 0 0 0 0 0 0 
0 0 0 0 0 0 0 0 0 
0 0 0 0 0 0 0 0 0 
0 0 0 0 0 0 0 0 0 
0 0 0 0 0 0 0 0 0 
0 0 0 0 0 0 0 0 0 
0 0 0 0 0 0 0 0 0 
0 0 0 0 0 0 0 0 0 
0 0 0 0 0 0 0 0 0 
0 0 0 0 0 0 0 0 0 
0 0 0 0 0 0 0 0 0 
0 0 0 0 0 0 0 0 0 
0 0 0 0 0 0 0 0 0 
0 0 0 0 0 0 0 0 0 
0 0 0 0 0 0 0 0 0 
0 0 0 0 0 0 0 0 0 
0 0 0 0 0 0 0 0 0 
0 0 0 0 0 0 0 0 0 
0 0 0 0 0 0 0 0 0 
0 0 0 0 0 0 0 0 0 
0 0 0 0 0 0 0 0 0 
0 0 0 0 0 0 0 0 0 
0 0 0 0 0 0 0 0 0 
0 0 0 0 0 0 0 0 0 
0 0 0 0 0 0 0 0 0 
0 0 0 0 0 0 0 0 0 
0 0 0 0 0 0 0 0 0 
0 0 0 0 0 0 0 0 0 
0 0 0 0 0 0 0 0 0 
0 0 0 0 0 0 0 0 0 
0 0 0 0 0 0 0 0 0 
0 0 0 0 0 0 0 0 0 
0 0 0 0 0 0 0 0 0 
0 0 0 0 0 0 0 0 0 
0 0 0 0 0 0 0 0 0 
0 0 0 0 0 0 0 0 0 
0 0 0 0 0 0 0 0 0 
0 0 0 0 0 0 0 0 0 
0 0 0 0 0 0 0 0 0 
0 0 0 0 0 0 0 0 0 
0 0 0 0 0 0 0 0 0 
0 0 0 0 0 0 0 0 0 
0 0 0 0 0 0 0 0 0 
0 0 0 0 0 0 0 0 0 
0 0 0 0 0 0 0 0 0 
0 0 0 0 0 0 0 0 0 
0 0 0 0 0 0 0 0 0 
0 0 0 0 0 0 0 0 0 
0 0 0 0 0 0 0 0 0 
0 0 0 0 0 0 0 0 0 
0 0 0 0 0 0 0 0 0 
0 0 0 0 0 0 0 0 0 
0 0 0 0 0 0 0 0 0 
0 0 0 0 0 0 0 0 0 
0 0 0 0 0 0 0 0 0 
0 0 0 0 0 0 0 0 0 
0 0 0 0 0 0 0 0 0 
0 0 0 0 0 0 0 0 0 
0 0 0 0 0 0 0 0 0 
0 0 0 0 0 0 0 0 0 
0 0 0 0 0 0 0 0 0 
0 0 0 0 0 0 0 0 0 
0 0 0 0 0 0 0 0 0 
0 0 0 0 0 0 0 0 0 
0 0 0 0 0 0 0 0 0 
0 0 0 0 0 0 0 0 0 
0 0 0 0 0 0 0 0 0 
0 0 0 0 0 0 0 0 0 
0 0 0 0 0 0 0 0 0 
0 0 0 0 0 0 0 0 0 
0 0 0 0 0 0 0 0 0 
0 0 0 0 0 0 0 0 0 
0 0 0 0 0 0 0 0 0 
0 0 0 0 0 0 0 0 0 
0 0 0 0 0 0 0 0 0 
0 0 0 0 0 0 0 0 0 
0 0 0 0 0 0 0 0 0 
0 0 0 0 0 0 0 0 0 
0 0 0 0 0 0 0 0 0 
0 0 0 0 0 0 0 0 0 
0 0 0 0 0 0 0 0 0 
0 0 0 0 0 0 0 0 0 
0 0 0 0 0 0 0 0 0 
0 0 0 0 0 0 0 0 0 
0 0 0 0 0 0 0 0 0 
0 0 0 0 0 0 0 0 0 
0 0 0 0 0 0 0 0 0 
0 0 0 0 0 0 0 0 0 
0 0 0 0 0 0 0 0 0 
0 0 0 0 0 0 0 0 0 
0 0 0 0 0 0 0 0 0 
0 0 0 0 0 0 0 0 0 
0 0 0 0 0 0 0 0 0 
0 0 0 0 0 0 0 0 0 
0 0 0 0 0 0 0 0 0 
0 0 0 0 0 0 0 0 0 
0 0 0 0 0 0 0 0 0 
0 0 0 0 0 0 0 0 0 
0 0 0 0 0 0 0 0 0 
0 0 0 0 0 0 0 0 0 
0 0 0 0 0 0 0 0 0 
0 0 0 0 0 0 0 0 0 
0 0 0 0 0 0 0 0 0 
0 0 0 0 0 0 0 0 0 
0 0 0 0 0 0 0 0 0 
0 0 0 0 0 0 0 0 0 
0 0 0 0 0 0 0 0 0 
0 0 0 0 0 0 0 0 0 
0 0 0 0 0 0 0 0 0 
0 0 0 0 0 0 0 0 0 
0 0 0 0 0 0 0 0 0 
0 0 0 0 0 0 0 0 0 
0 0 0 0 0 0 0 0 0 
0 0 0 0 0 0 0 0 0 
0 0 0 0 0 0 0 0 0 
0 0 0 0 0 0 0 0 0 
0 0 0 0 0 0 0 0 0 
0 0 0 0 0 0 0 0 0 
0 0 0 0 0 0 0 0 0 
0 0 0 0 0 0 0 0 0 
0 0 0 0 0 0 0 0 0 
0 0 0 0 0 0 0 0 0 
0 0 0 0 0 0 0 0 0 
0 0 0 0 0 0 0 0 0 
0 0 0 0 0 0 0 0 0 
0 0 0 0 0 0 0 0 0 
0 0 0 0 0 0 0 0 0 
0 0 0 0 0 0 0 0 0 
0 0 0 0 0 0 0 0 0 
0 0 0 0 0 0 0 0 0 
0 0 0 0 0 0 0 0 0 
0 0 0 0 0 0 0 0 0 
0 0 0 0 0 0 0 0 0 
0 0 0 0 0 0 0 0 0 
0 0 0 0 0 0 0 0 0 
0 0 0 0 0 0 0 0 0 
0 0 0 0 0 0 0 0 0 
0 0 0 0 0 0 0 0 0 
0 0 0 0 0 0 0 0 0 
0 0 0 0 0 0 0 0 0 
0 0 0 0 0 0 0 0 0 
0 0 0 0 0 0 0 0 0 
0 0 0 0 0 0 0 0 0 
0 0 0 0 0 0 0 0 0 
0 0 0 0 0 0 0 0 0 
0 0 0 0 0 0 0 0 0 
0 0 0 0 0 0 0 0 0 
0 0 0 0 0 0 0 0 0 
0 0 0 0 0 0 0 0 0 
0 0 0 0 0 0 0 0 0 
0 0 0 0 0 0 0 0 0 
0 0 0 0 0 0 0 0 0 
0 0 0 0 0 0 0 0 0 
0 0 0 0 0 0 0 0 0 
0 0 0 0 0 0 0 0 0 
0 0 0 0 0 0 0 0 0 
0 0 0 0 0 0 0 0 0 
0 0 0 0 0 0 0 0 0 
0 0 0 0 0 0 0 0 0 
0 0 0 0 0 0 0 0 0 
0 0 0 0 0 0 0 0 0 
0 0 0 0 0 0 0 0 0 
0 0 0 0 0 0 0 0 0 
0 0 0 0 0 0 0 0 0 
0 0 0 0 0 0 0 0 0 
0 0 0 0 0 0 0 0 0 
0 0 0 0 0 0 0 0 0 
0 0 0 0 0 0 0 0 0 
0 0 0 0 0 0 0 0 0 
0 0 0 0 0 0 0 0 0 
0 0 0 0 0 0 0 0 0 
0 0 0 0 0 0 0 0 0 
0 0 0 0 0 0 0 0 0 
0 0 0 0 0 0 0 0 0 
0 0 0 0 0 0 0 0 0 
0 0 0 0 0 0 0 0 0 
0 0 0 0 0 0 0 0 0 
0 0 0 0 0 0 0 0 0 
0 0 0 0 0 0 0 0 0 
0 0 0 0 0 0 0 0 0 
0 0 0 0 0 0 0 0 0 
0 0 0 0 0 0 0 0 0 
0 0 0 0 0 0 0 0 0 
0 0 0 0 0 0 0 0 0 
0 0 0 0 0 0 0 0 0 
0 0 0 0 0 0 0 0 0 
0 0 0 0 0 0 0 0 0 
0 0 0 0 0 0 0 0 0 
0 0 0 0 0 0 0 0 0 
0 0 0 0 0 0 0 0 0 
0 0 0 0 0 0 0 0 0 
0 0 0 0 0 0 0 0 0 
0 0 0 0 0 0 0 0 0 
0 0 0 0 0 0 0 0 0 
0 0 0 0 0 0 0 0 0 
0 0 0 0 0 0 0 0 0 
0 0 0 0 0 0 0 0 0 
0 0 0 0 0 0 0 0 0 
0 0 0 0 0 0 0 0 0 
0 0 0 0 0 0 0 0 0 
0 0 0 0 0 0 0 0 0 
0 0 0 0 0 0 0 0 0 
0 0 0 0 0 0 0 0 0 
0 0 0 0 0 0 0 0 0 
0 0 0 0 0 0 0 0 0 
0 0 0 0 0 0 0 0 0 
0 0 0 0 0 0 0 0 0 
0 0 0 0 0 0 0 0 0 
0 0 0 0 0 0 0 0 0 
0 0 0 0 0 0 0 0 0 
0 0 0 0 0 0 0 0 0 
0 0 0 0 0 0 0 0 0 
0 0 0 0 0 0 0 0 0 
0 0 0 0 0 0 0 0 0 
0 0 0 0 0 0 0 0 0 
0 0 0 0 0 0 0 0 0 
0 0 0 0 0 0 0 0 0 
0 0 0 0 0 0 0 0 0 
0 0 0 0 0 0 0 0 0 
0 0 0 0 0 0 0 0 0 
0 0 0 0 0 0 0 0 0 
0 0 0 0 0 0 0 0 0 
0 0 0 0 0 0 0 0 0 
0 0 0 0 0 0 0 0 0 
0 0 0 0 0 0 0 0 0 
0 0 0 0 0 0 0 0 0 
0 0 0 0 0 0 0 0 0 
0 0 0 0 0 0 0 0 0 
0 0 0 0 0 0 0 0 0 
0 0 0 0 0 0 0 0 0 
0 0 0 0 0 0 0 0 0 
0 0 0 0 0 0 0 0 0 
0 0 0 0 0 0 0 0 0 
0 0 0 0 0 0 0 0 0 
0 0 0 0 0 0 0 0 0 
0 0 0 0 0 0 0 0 0 
0 0 0 0 0 0 0 0 0 
0 0 0 0 0 0 0 0 0 
0 0 0 0 0 0 0 0 0 
0 0 0 0 0 0 0 0 0 
0 0 0 0 0 0 0 0 0 
0 0 0 0 0 0 0 0 0 
0 0 0 0 0 0 0 0 0 
0 0 0 0 0 0 0 0 0 
0 0 0 0 0 0 0 0 0 
0 0 0 0 0 0 0 0 0 
0 0 0 0 0 0 0 0 0 
0 0 0 0 0 0 0 0 0 
0 0 0 0 0 0 0 0 0 
0 0 0 0 0 0 0 0 0 
0 0 0 0 0 0 0 0 0 
0 0 0 0 0 0 0 0 0 
0 0 0 0 0 0 0 0 0 
0 0 0 0 0 0 0 0 0 
0 0 0 0 0 0 0 0 0 
0 0 0 0 0 0 0 0 0 
0 0 0 0 0 0 0 0 0 
0 0 0 0 0 0 0 0 0 
0 0 0 0 0 0 0 0 0 
0 0 0 0 0 0 0 0 0 
0 0 0 0 0 0 0 0 0 
0 0 0 0 0 0 0 0 0 
0 0 0 0 0 0 0 0 0 
0 0 0 0 0 0 0 0 0 
0 0 0 0 0 0 0 0 0 
0 0 0 0 0 0 0 0 0 
0 0 0 0 0 0 0 0 0 
0 0 0 0 0 0 0 0 0 
0 0 0 0 0 0 0 0 0 
0 0 0 0 0 0 0 0 0 
0 0 0 0 0 0 0 0 0 
0 0 0 0 0 0 0 0 0 
0 0 0 0 0 0 0 0 0 
0 0 0 0 0 0 0 0 0 
0 0 0 0 0 0 0 0 0 
0 0 0 0 0 0 0 0 0 
0 0 0 0 0 0 0 0 0 
0 0 0 0 0 0 0 0 0 
0 0 0 0 0 0 0 0 0 
0 0 0 0 0 0 0 0 0 
0 0 0 0 0 0 0 0 0 
0 0 0 0 0 0 0 0 0 
0 0 0 0 0 0 0 0 0 
0 0 0 0 0 0 0 0 0 
0 0 0 0 0 0 0 0 0 
0 0 0 0 0 0 0 0 0 
0 0 0 0 0 0 0 0 0 
0 0 0 0 0 0 0 0 0 
0 0 0 0 0 0 0 0 0 
0 0 0 0 0 0 0 0 0 
0 0 0 0 0 0 0 0 0 
0 0 0 0 0 0 0 0 0 
0 0 0 0 0 0 0 0 0 
0 0 0 0 0 0 0 0 0 
0 0 0 0 0 0 0 0 0 
0 0 0 0 0 0 0 0 0 
0 0 0 0 0 0 0 0 0 
0 0 0 0 0 0 0 0 0 
0 0 0 0 0 0 0 0 0 
0 0 0 0 0 0 0 0 0 
0 0 0 0 0 0 0 0 0 
0 0 0 0 0 0 0 0 0 
0 0 0 0 0 0 0 0 0 
0 0 0 0 0 0 0 0 0 
0 0 0 0 0 0 0 0 0 
0 0 0 0 0 0 0 0 0 
0 0 0 0 0 0 0 0 0 
0 0 0 0 0 0 0 0 0 
0 0 0 0 0 0 0 0 0 
0 0 0 0 0 0 0 0 0 
0 0 0 0 0 0 0 0 0 
0 0 0 0 0 0 0 0 0 
0 0 0 0 0 0 0 0 0 
0 0 0 0 0 0 0 0 0 
0 0 0 0 0 0 0 0 0 
0 0 0 0 0 0 0 0 0 
0 0 0 0 0 0 0 0 0 
0 0 0 0 0 0 0 0 0 
0 0 0 0 0 0 0 0 0 
0 0 0 0 0 0 0 0 0 
0 0 0 0 0 0 0 0 0 
0 0 0 0 0 0 0 0 0 
0 0 0 0 0 0 0 0 0 
0 0 0 0 0 0 0 0 0 
0 0 0 0 0 0 0 0 0 
0 0 0 0 0 0 0 0 0 
0 0 0 0 0 0 0 0 0 
0 0 0 0 0 0 0 0 0 
0 0 0 0 0 0 0 0 0 
0 0 0 0 0 0 0 0 0 
0 0 0 0 0 0 0 0 0 
0 0 0 0 0 0 0 0 0 
0 0 0 0 0 0 0 0 0 
0 0 0 0 0 0 0 0 0 
0 0 0 0 0 0 0 0 0 
0 0 0 0 0 0 0 0 0 
0 0 0 0 0 0 0 0 0 
0 0 0 0 0 0 0 0 0 
0 0 0 0 0 0 0 0 0 
0 0 0 0 0 0 0 0 0 
0 0 0 0 0 0 0 0 0 
0 0 0 0 0 0 0 0 0 
0 0 0 0 0 0 0 0 0 
0 0 0 0 0 0 0 0 0 
0 0 0 0 0 0 0 0 0 
0 0 0 0 0 0 0 0 0 
0 0 0 0 0 0 0 0 0 
0 0 0 0 0 0 0 0 0 
0 0 0 0 0 0 0 0 0 
0 0 0 0 0 0 0 0 0 
0 0 0 0 0 0 0 0 0 
0 0 0 0 0 0 0 0 0 
0 0 0 0 0 0 0 0 0 
0 0 0 0 0 0 0 0 0 
0 0 0 0 0 0 0 0 0 
0 0 0 0 0 0 0 0 0 
0 0 0 0 0 0 0 0 0 
0 0 0 0 0 0 0 0 0 
0 0 0 0 0 0 0 0 0 
0 0 0 0 0 0 0 0 0 
0 0 0 0 0 0 0 0 0 
0 0 0 0 0 0 0 0 0 
0 0 0 0 0 0 0 0 0 
0 0 0 0 0 0 0 0 0 
0 0 0 0 0 0 0 0 0 
0 0 0 0 0 0 0 0 0 
0 0 0 0 0 0 0 0 0 
0 0 0 0 0 0 0 0 0 
0 0 0 0 0 0 0 0 0 
0 0 0 0 0 0 0 0 0 
0 0 0 0 0 0 0 0 0 
0 0 0 0 0 0 0 0 0 
0 0 0 0 0 0 0 0 0 
0 0 0 0 0 0 0 0 0 
0 0 0 0 0 0 0 0 0 
0 0 0 0 0 0 0 0 0 
0 0 0 0 0 0 0 0 0 
0 0 0 0 0 0 0 0 0 
0 0 0 0 0 0 0 0 0 
0 0 0 0 0 0 0 0 0 
0 0 0 0 0 0 0 0 0 
0 0 0 0 0 0 0 0 0 
0 0 0 0 0 0 0 0 0 
0 0 0 0 0 0 0 0 0 
0 0 0 0 0 0 0 0 0 
0 0 0 0 0 0 0 0 0 
0 0 0 0 0 0 0 0 0 
0 0 0 0 0 0 0 0 0 
0 0 0 0 0 0 0 0 0 
0 0 0 0 0 0 0 0 0 
0 0 0 0 0 0 0 0 0 
0 0 0 0 0 0 0 0 0 
0 0 0 0 0 0 0 0 0 
0 0 0 0 0 0 0 0 0 
0 0 0 0 0 0 0 0 0 
0 0 0 0 0 0 0 0 0 
0 0 0 0 0 0 0 0 0 
0 0 0 0 0 0 0 0 0 
0 0 0 0 0 0 0 0 0 
0 0 0 0 0 0 0 0 0 
0 0 0 0 0 0 0 0 0 
0 0 0 0 0 0 0 0 0 
0 0 0 0 0 0 0 0 0 
0 0 0 0 0 0 0 0 0 
0 0 0 0 0 0 0 0 0 
0 0 0 0 0 0 0 0 0 
0 0 0 0 0 0 0 0 0 
0 0 0 0 0 0 0 0 0 
0 0 0 0 0 0 0 0 0 
0 0 0 0 0 0 0 0 0 
0 0 0 0 0 0 0 0 0 
0 0 0 0 0 0 0 0 0 
0 0 0 0 0 0 0 0 0 
0 0 0 0 0 0 0 0 0 
0 0 0 0 0 0 0 0 0 
0 0 0 0 0 0 0 0 0 
0 0 0 0 0 0 0 0 0 
0 0 0 0 0 0 0 0 0 
0 0 0 0 0 0 0 0 0 
0 0 0 0 0 0 0 0 0 
0 0 0 0 0 0 0 0 0 
0 0 0 0 0 0 0 0 0 
0 0 0 0 0 0 0 0 0 
0 0 0 0 0 0 0 0 0 
0 0 0 0 0 0 0 0 0 
0 0 0 0 0 0 0 0 0 
0 0 0 0 0 0 0 0 0 
0 0 0 0 0 0 0 0 0 
0 0 0 0 0 0 0 0 0 
0 0 0 0 0 0 0 0 0 
0 0 0 0 0 0 0 0 0 
0 0 0 0 0 0 0 0 0 
0 0 0 0 0 0 0 0 0 
0 0 0 0 0 0 0 0 0 
0 0 0 0 0 0 0 0 0 
0 0 0 0 0 0 0 0 0 
0 0 0 0 0 0 0 0 0 
0 0 0 0 0 0 0 0 0 
0 0 0 0 0 0 0 0 0 
0 0 0 0 0 0 0 0 0 
0 0 0 0 0 0 0 0 0 
0 0 0 0 0 0 0 0 0 
0 0 0 0 0 0 0 0 0 
0 0 0 0 0 0 0 0 0 
0 0 0 0 0 0 0 0 0 
0 0 0 0 0 0 0 0 0 
0 0 0 0 0 0 0 0 0 
0 0 0 0 0 0 0 0 0 
0 0 0 0 0 0 0 0 0 
0 0 0 0 0 0 0 0 0 
0 0 0 0 0 0 0 0 0 
0 0 0 0 0 0 0 0 0 
0 0 0 0 0 0 0 0 0 
0 0 0 0 0 0 0 0 0 
0 0 0 0 0 0 0 0 0 
0 0 0 0 0 0 0 0 0 
0 0 0 0 0 0 0 0 0 
0 0 0 0 0 0 0 0 0 
0 0 0 0 0 0 0 0 0 
0 0 0 0 0 0 0 0 0 
0 0 0 0 0 0 0 0 0 
0 0 0 0 0 0 0 0 0 
0 0 0 0 0 0 0 0 0 
0 0 0 0 0 0 0 0 0 
0 0 0 0 0 0 0 0 0 
0 0 0 0 0 0 0 0 0 
0 0 0 0 0 0 0 0 0 
0 0 0 0 0 0 0 0 0 
0 0 0 0 0 0 0 0 0 
0 0 0 0 0 0 0 0 0 
0 0 0 0 0 0 0 0 0 
0 0 0 0 0 0 0 0 0 
0 0 0 0 0 0 0 0 0 
0 0 0 0 0 0 0 0 0 
0 0 0 0 0 0 0 0 0 
0 0 0 0 0 0 0 0 0 
0 0 0 0 0 0 0 0 0 
0 0 0 0 0 0 0 0 0 
0 0 0 0 0 0 0 0 0 
0 0 0 0 0 0 0 0 0 
0 0 0 0 0 0 0 0 0 
0 0 0 0 0 0 0 0 0 
0 0 0 0 0 0 0 0 0 
0 0 0 0 0 0 0 0 0 
0 0 0 0 0 0 0 0 0 
0 0 0 0 0 0 0 0 0 
0 0 0 0 0 0 0 0 0 
0 0 0 0 0 0 0 0 0 
0 0 0 0 0 0 0 0 0 
0 0 0 0 0 0 0 0 0 
0 0 0 0 0 0 0 0 0 
0 0 0 0 0 0 0 0 0 
0 0 0 0 0 0 0 0 0 
0 0 0 0 0 0 0 0 0 
0 0 0 0 0 0 0 0 0 
0 0 0 0 0 0 0 0 0 
0 0 0 0 0 0 0 0 0 
0 0 0 0 0 0 0 0 0 
0 0 0 0 0 0 0 0 0 
0 0 0 0 0 0 0 0 0 
0 0 0 0 0 0 0 0 0 
0 0 0 0 0 0 0 0 0 
0 0 0 0 0 0 0 0 0 
0 0 0 0 0 0 0 0 0 
0 0 0 0 0 0 0 0 0 
0 0 0 0 0 0 0 0 0 
0 0 0 0 0 0 0 0 0 
0 0 0 0 0 0 0 0 0 
0 0 0 0 0 0 0 0 0 
0 0 0 0 0 0 0 0 0 
0 0 0 0 0 0 0 0 0 
0 0 0 0 0 0 0 0 0 
0 0 0 0 0 0 0 0 0 
0 0 0 0 0 0 0 0 0 
0 0 0 0 0 0 0 0 0 
0 0 0 0 0 0 0 0 0 
0 0 0 0 0 0 0 0 0 
0 0 0 0 0 0 0 0 0 
0 0 0 0 0 0 0 0 0 
0 0 0 0 0 0 0 0 0 
0 0 0 0 0 0 0 0 0 
0 0 0 0 0 0 0 0 0 
0 0 0 0 0 0 0 0 0 
0 0 0 0 0 0 0 0 0 
0 0 0 0 0 0 0 0 0 
0 0 0 0 0 0 0 0 0 
0 0 0 0 0 0 0 0 0 
0 0 0 0 0 0 0 0 0 
0 0 0 0 0 0 0 0 0 
0 0 0 0 0 0 0 0 0 
0 0 0 0 0 0 0 0 0 
0 0 0 0 0 0 0 0 0 
0 0 0 0 0 0 0 0 0 
0 0 0 0 0 0 0 0 0 
0 0 0 0 0 0 0 0 0 
0 0 0 0 0 0 0 0 0 
0 0 0 0 0 0 0 0 0 
0 0 0 0 0 0 0 0 0 
0 0 0 0 0 0 0 0 0 
0 0 0 0 0 0 0 0 0 
0 0 0 0 0 0 0 0 0 
0 0 0 0 0 0 0 0 0 
0 0 0 0 0 0 0 0 0 
0 0 0 0 0 0 0 0 0 
0 0 0 0 0 0 0 0 0 
0 0 0 0 0 0 0 0 0 
0 0 0 0 0 0 0 0 0 
0 0 0 0 0 0 0 0 0 
0 0 0 0 0 0 0 0 0 
0 0 0 0 0 0 0 0 0 
0 0 0 0 0 0 0 0 0 
0 0 0 0 0 0 0 0 0 
0 0 0 0 0 0 0 0 0 
0 0 0 0 0 0 0 0 0 
0 0 0 0 0 0 0 0 0 
0 0 0 0 0 0 0 0 0 
0 0 0 0 0 0 0 0 0 
0 0 0 0 0 0 0 0 0 
0 0 0 0 0 0 0 0 0 
0 0 0 0 0 0 0 0 0 
0 0 0 0 0 0 0 0 0 
0 0 0 0 0 0 0 0 0 
0 0 0 0 0 0 0 0 0 
0 0 0 0 0 0 0 0 0 
0 0 0 0 0 0 0 0 0 
0 0 0 0 0 0 0 0 0 
0 0 0 0 0 0 0 0 0 
0 0 0 0 0 0 0 0 0 
0 0 0 0 0 0 0 0 0 
0 0 0 0 0 0 0 0 0 
0 0 0 0 0 0 0 0 0 
0 0 0 0 0 0 0 0 0 
0 0 0 0 0 0 0 0 0 
0 0 0 0 0 0 0 0 0 
0 0 0 0 0 0 0 0 0 
0 0 0 0 0 0 0 0 0 
0 0 0 0 0 0 0 0 0 
0 0 0 0 0 0 0 0 0 
0 0 0 0 0 0 0 0 0 
0 0 0 0 0 0 0 0 0 
0 0 0 0 0 0 0 0 0 
0 0 0 0 0 0 0 0 0 
0 0 0 0 0 0 0 0 0 
0 0 0 0 0 0 0 0 0 
0 0 0 0 0 0 0 0 0 
0 0 0 0 0 0 0 0 0 
0 0 0 0 0 0 0 0 0 
0 0 0 0 0 0 0 0 0 
0 0 0 0 0 0 0 0 0 
0 0 0 0 0 0 0 0 0 
0 0 0 0 0 0 0 0 0 
0 0 0 0 0 0 0 0 0 
0 0 0 0 0 0 0 0 0 
0 0 0 0 0 0 0 0 0 
0 0 0 0 0 0 0 0 0 
0 0 0 0 0 0 0 0 0 
0 0 0 0 0 0 0 0 0 
0 0 0 0 0 0 0 0 0 
0 0 0 0 0 0 0 0 0 
0 0 0 0 0 0 0 0 0 
0 0 0 0 0 0 0 0 0 
0 0 0 0 0 0 0 0 0 
0 0 0 0 0 0 0 0 0 
0 0 0 0 0 0 0 0 0 
0 0 0 0 0 0 0 0 0 
0 0 0 0 0 0 0 0 0 
0 0 0 0 0 0 0 0 0 
0 0 0 0 0 0 0 0 0 
0 0 0 0 0 0 0 0 0 
0 0 0 0 0 0 0 0 0 
0 0 0 0 0 0 0 0 0 
0 0 0 0 0 0 0 0 0 
0 0 0 0 0 0 0 0 0 
0 0 0 0 0 0 0 0 0 
0 0 0 0 0 0 0 0 0 
0 0 0 0 0 0 0 0 0 
0 0 0 0 0 0 0 0 0 
0 0 0 0 0 0 0 0 0 
0 0 0 0 0 0 0 0 0 
0 0 0 0 0 0 0 0 0 
0 0 0 0 0 0 0 0 0 
0 0 0 0 0 0 0 0 0 
0 0 0 0 0 0 0 0 0 
0 0 0 0 0 0 0 0 0 
0 0 0 0 0 0 0 0 0 
0 0 0 0 0 0 0 0 0 
0 0 0 0 0 0 0 0 0 
0 0 0 0 0 0 0 0 0 
0 0 0 0 0 0 0 0 0 
0 0 0 0 0 0 0 0 0 
0 0 0 0 0 0 0 0 0 
0 0 0 0 0 0 0 0 0 
0 0 0 0 0 0 0 0 0 
0 0 0 0 0 0 0 0 0 
0 0 0 0 0 0 0 0 0 
0 0 0 0 0 0 0 0 0 
0 0 0 0 0 0 0 0 0 
0 0 0 0 0 0 0 0 0 
0 0 0 0 0 0 0 0 0 
0 0 0 0 0 0 0 0 0 
0 0 0 0 0 0 0 0 0 
0 0 0 0 0 0 0 0 0 
0 0 0 0 0 0 0 0 0 
0 0 0 0 0 0 0 0 0 
0 0 0 0 0 0 0 0 0 
0 0 0 0 0 0 0 0 0 
0 0 0 0 0 0 0 0 0 
0 0 0 0 0 0 0 0 0 
0 0 0 0 0 0 0 0 0 
0 0 0 0 0 0 0 0 0 
0 0 0 0 0 0 0 0 0 
0 0 0 0 0 0 0 0 0 
0 0 0 0 0 0 0 0 0 
0 0 0 0 0 0 0 0 0 
0 0 0 0 0 0 0 0 0 
0 0 0 0 0 0 0 0 0 
0 0 0 0 0 0 0 0 0 
0 0 0 0 0 0 0 0 0 
0 0 0 0 0 0 0 0 0 
0 0 0 0 0 0 0 0 0 
0 0 0 0 0 0 0 0 0 
0 0 0 0 0 0 0 0 0 
0 0 0 0 0 0 0 0 0 
0 0 0 0 0 0 0 0 0 
0 0 0 0 0 0 0 0 0 
0 0 0 0 0 0 0 0 0 
0 0 0 0 0 0 0 0 0 
0 0 0 0 0 0 0 0 0 
0 0 0 0 0 0 0 0 0 
0 0 0 0 0 0 0 0 0 
0 0 0 0 0 0 0 0 0 
0 0 0 0 0 0 0 0 0 
0 0 0 0 0 0 0 0 0 
0 0 0 0 0 0 0 0 0 
0 0 0 0 0 0 0 0 0 
0 0 0 0 0 0 0 0 0 
0 0 0 0 0 0 0 0 0 
0 0 0 0 0 0 0 0 0 
0 0 0 0 0 0 0 0 0 
0 0 0 0 0 0 0 0 0 
0 0 0 0 0 0 0 0 0 
0 0 0 0 0 0 0 0 0 
0 0 0 0 0 0 0 0 0 
0 0 0 0 0 0 0 0 0 
0 0 0 0 0 0 0 0 0 
0 0 0 0 0 0 0 0 0 
0 0 0 0 0 0 0 0 0 
0 0 0 0 0 0 0 0 0 
0 0 0 0 0 0 0 0 0 
0 0 0 0 0 0 0 0 0 
0 0 0 0 0 0 0 0 0 
0 0 0 0 0 0 0 0 0 
0 0 0 0 0 0 0 0 0 
0 0 0 0 0 0 0 0 0 
0 0 0 0 0 0 0 0 0 
0 0 0 0 0 0 0 0 0 
0 0 0 0 0 0 0 0 0 
0 0 0 0 0 0 0 0 0 
0 0 0 0 0 0 0 0 0 
0 0 0 0 0 0 0 0 0 
0 0 0 0 0 0 0 0 0 
0 0 0 0 0 0 0 0 0 
0 0 0 0 0 0 0 0 0 
0 0 0 0 0 0 0 0 0 
0 0 0 0 0 0 0 0 0 
0 0 0 0 0 0 0 0 0 
0 0 0 0 0 0 0 0 0 
0 0 0 0 0 0 0 0 0 
0 0 0 0 0 0 0 0 0 
0 0 0 0 0 0 0 0 0 
0 0 0 0 0 0 0 0 0 
0 0 0 0 0 0 0 0 0 
0 0 0 0 0 0 0 0 0 
0 0 0 0 0 0 0 0 0 
0 0 0 0 0 0 0 0 0 
0 0 0 0 0 0 0 0 0 
0 0 0 0 0 0 0 0 0 
0 0 0 0 0 0 0 0 0 
0 0 0 0 0 0 0 0 0 
0 0 0 0 0 0 0 0 0 
0 0 0 0 0 0 0 0 0 
0 0 0 0 0 0 0 0 0 
0 0 0 0 0 0 0 0 0 
0 0 0 0 0 0 0 0 0 
0 0 0 0 0 0 0 0 0 
0 0 0 0 0 0 0 0 0 
0 0 0 0 0 0 0 0 0 
0 0 0 0 0 0 0 0 0 
0 0 0 0 0 0 0 0 0 
0 0 0 0 0 0 0 0 0 
0 0 0 0 0 0 0 0 0 
0 0 0 0 0 0 0 0 0 
0 0 0 0 0 0 0 0 0 
0 0 0 0 0 0 0 0 0 
0 0 0 0 0 0 0 0 0 
0 0 0 0 0 0 0 0 0 
0 0 0 0 0 0 0 0 0 
0 0 0 0 0 0 0 0 0 
0 0 0 0 0 0 0 0 0 
0 0 0 0 0 0 0 0 0 
0 0 0 0 0 0 0 0 0 
0 0 0 0 0 0 0 0 0 
0 0 0 0 0 0 0 0 0 
0 0 0 0 0 0 0 0 0 
0 0 0 0 0 0 0 0 0 
0 0 0 0 0 0 0 0 0 
0 0 0 0 0 0 0 0 0 
0 0 0 0 0 0 0 0 0 
0 0 0 0 0 0 0 0 0 
0 0 0 0 0 0 0 0 0 
0 0 0 0 0 0 0 0 0 
0 0 0 0 0 0 0 0 0 
0 0 0 0 0 0 0 0 0 
0 0 0 0 0 0 0 0 0 
0 0 0 0 0 0 0 0 0 
0 0 0 0 0 0 0 0 0 
0 0 0 0 0 0 0 0 0 
0 0 0 0 0 0 0 0 0 
0 0 0 0 0 0 0 0 0 
0 0 0 0 0 0 0 0 0 
0 0 0 0 0 0 0 0 0 
0 0 0 0 0 0 0 0 0 
0 0 0 0 0 0 0 0 0 
0 0 0 0 0 0 0 0 0 
0 0 0 0 0 0 0 0 0 
0 0 0 0 0 0 0 0 0 
0 0 0 0 0 0 0 0 0 
0 0 0 0 0 0 0 0 0 
0 0 0 0 0 0 0 0 0 
0 0 0 0 0 0 0 0 0 
0 0 0 0 0 0 0 0 0 
0 0 0 0 0 0 0 0 0 
0 0 0 0 0 0 0 0 0 
0 0 0 0 0 0 0 0 0 
0 0 0 0 0 0 0 0 0 
0 0 0 0 0 0 0 0 0 
0 0 0 0 0 0 0 0 0 
0 0 0 0 0 0 0 0 0 
0 0 0 0 0 0 0 0 0 
0 0 0 0 0 0 0 0 0 
0 0 0 0 0 0 0 0 0 
0 0 0 0 0 0 0 0 0 
0 0 0 0 0 0 0 0 0 
0 0 0 0 0 0 0 0 0 
0 0 0 0 0 0 0 0 0 
0 0 0 0 0 0 0 0 0 
0 0 0 0 0 0 0 0 0 
0 0 0 0 0 0 0 0 0 
0 0 0 0 0 0 0 0 0 
0 0 0 0 0 0 0 0 0 
0 0 0 0 0 0 0 0 0 
0 0 0 0 0 0 0 0 0 
0 0 0 0 0 0 0 0 0 
0 0 0 0 0 0 0 0 0 
0 0 0 0 0 0 0 0 0 
0 0 0 0 0 0 0 0 0 
0 0 0 0 0 0 0 0 0 
0 0 0 0 0 0 0 0 0 
0 0 0 0 0 0 0 0 0 
0 0 0 0 0 0 0 0 0 
0 0 0 0 0 0 0 0 0 
0 0 0 0 0 0 0 0 0 
0 0 0 0 0 0 0 0 0 
0 0 0 0 0 0 0 0 0 
0 0 0 0 0 0 0 0 0 
0 0 0 0 0 0 0 0 0 
0 0 0 0 0 0 0 0 0 
0 0 0 0 0 0 0 0 0 
0 0 0 0 0 0 0 0 0 
0 0 0 0 0 0 0 0 0 
0 0 0 0 0 0 0 0 0 
0 0 0 0 0 0 0 0 0 
0 0 0 0 0 0 0 0 0 
0 0 0 0 0 0 0 0 0 
0 0 0 0 0 0 0 0 0 
0 0 0 0 0 0 0 0 0 
0 0 0 0 0 0 0 0 0 
0 0 0 0 0 0 0 0 0 
0 0 0 0 0 0 0 0 0 
0 0 0 0 0 0 0 0 0 
0 0 0 0 0 0 0 0 0 
0 0 0 0 0 0 0 0 0 
0 0 0 0 0 0 0 0 0 
0 0 0 0 0 0 0 0 0 
0 0 0 0 0 0 0 0 0 
0 0 0 0 0 0 0 0 0 
0 0 0 0 0 0 0 0 0 
0 0 0 0 0 0 0 0 0 
0 0 0 0 0 0 0 0 0 
0 0 0 0 0 0 0 0 0 
0 0 0 0 0 0 0 0 0 
0 0 0 0 0 0 0 0 0 
0 0 0 0 0 0 0 0 0 
0 0 0 0 0 0 0 0 0 
0 0 0 0 0 0 0 0 0 
0 0 0 0 0 0 0 0 0 
0 0 0 0 0 0 0 0 0 
0 0 0 0 0 0 0 0 0 
0 0 0 0 0 0 0 0 0 
0 0 0 0 0 0 0 0 0 
0 0 0 0 0 0 0 0 0 
0 0 0 0 0 0 0 0 0 
0 0 0 0 0 0 0 0 0 
0 0 0 0 0 0 0 0 0 
0 0 0 0 0 0 0 0 0 
0 0 0 0 0 0 0 0 0 
0 0 0 0 0 0 0 0 0 
0 0 0 0 0 0 0 0 0 
0 0 0 0 0 0 0 0 0 
0 0 0 0 0 0 0 0 0 
0 0 0 0 0 0 0 0 0 
0 0 0 0 0 0 0 0 0 
0 0 0 0 0 0 0 0 0 
0 0 0 0 0 0 0 0 0 
0 0 0 0 0 0 0 0 0 
0 0 0 0 0 0 0 0 0 
0 0 0 0 0 0 0 0 0 
0 0 0 0 0 0 0 0 0 
0 0 0 0 0 0 0 0 0 
0 0 0 0 0 0 0 0 0 
0 0 0 0 0 0 0 0 0 
0 0 0 0 0 0 0 0 0 
0 0 0 0 0 0 0 0 0 
0 0 0 0 0 0 0 0 0 
0 0 0 0 0 0 0 0 0 
0 0 0 0 0 0 0 0 0 
0 0 0 0 0 0 0 0 0 
0 0 0 0 0 0 0 0 0 
0 0 0 0 0 0 0 0 0 
0 0 0 0 0 0 0 0 0 
0 0 0 0 0 0 0 0 0 
0 0 0 0 0 0 0 0 0 
0 0 0 0 0 0 0 0 0 
0 0 0 0 0 0 0 0 0 
0 0 0 0 0 0 0 0 0 
0 0 0 0 0 0 0 0 0 
0 0 0 0 0 0 0 0 0 
0 0 0 0 0 0 0 0 0 
0 0 0 0 0 0 0 0 0 
0 0 0 0 0 0 0 0 0 
0 0 0 0 0 0 0 0 0 
0 0 0 0 0 0 0 0 0 
0 0 0 0 0 0 0 0 0 
0 0 0 0 0 0 0 0 0 
0 0 0 0 0 0 0 0 0 
0 0 0 0 0 0 0 0 0 
0 0 0 0 0 0 0 0 0 
0 0 0 0 0 0 0 0 0 
0 0 0 0 0 0 0 0 0 
0 0 0 0 0 0 0 0 0 
0 0 0 0 0 0 0 0 0 
0 0 0 0 0 0 0 0 0 
0 0 0 0 0 0 0 0 0 
0 0 0 0 0 0 0 0 0 
0 0 0 0 0 0 0 0 0 
0 0 0 0 0 0 0 0 0 
0 0 0 0 0 0 0 0 0 
0 0 0 0 0 0 0 0 0 
0 0 0 0 0 0 0 0 0 
0 0 0 0 0 0 0 0 0 
0 0 0 0 0 0 0 0 0 
0 0 0 0 0 0 0 0 0 
0 0 0 0 0 0 0 0 0 
0 0 0 0 0 0 0 0 0 
0 0 0 0 0 0 0 0 0 
0 0 0 0 0 0 0 0 0 
0 0 0 0 0 0 0 0 0 
0 0 0 0 0 0 0 0 0 
0 0 0 0 0 0 0 0 0 
0 0 0 0 0 0 0 0 0 
0 0 0 0 0 0 0 0 0 
0 0 0 0 0 0 0 0 0 
0 0 0 0 0 0 0 0 0 
0 0 0 0 0 0 0 0 0 
0 0 0 0 0 0 0 0 0 
0 0 0 0 0 0 0 0 0 
0 0 0 0 0 0 0 0 0 
0 0 0 0 0 0 0 0 0 
0 0 0 0 0 0 0 0 0 
0 0 0 0 0 0 0 0 0 
0 0 0 0 0 0 0 0 0 
0 0 0 0 0 0 0 0 0 
0 0 0 0 0 0 0 0 0 
0 0 0 0 0 0 0 0 0 
0 0 0 0 0 0 0 0 0 
0 0 0 0 0 0 0 0 0 
0 0 0 0 0 0 0 0 0 
0 0 0 0 0 0 0 0 0 
0 0 0 0 0 0 0 0 0 
0 0 0 0 0 0 0 0 0 
0 0 0 0 0 0 0 0 0 
0 0 0 0 0 0 0 0 0 
0 0 0 0 0 0 0 0 0 
0 0 0 0 0 0 0 0 0 
0 0 0 0 0 0 0 0 0 
0 0 0 0 0 0 0 0 0 
0 0 0 0 0 0 0 0 0 
0 0 0 0 0 0 0 0 0 
0 0 0 0 0 0 0 0 0 
0 0 0 0 0 0 0 0 0 
0 0 0 0 0 0 0 0 0 
0 0 0 0 0 0 0 0 0 
0 0 0 0 0 0 0 0 0 
0 0 0 0 0 0 0 0 0 
0 0 0 0 0 0 0 0 0 
0 0 0 0 0 0 0 0 0 
0 0 0 0 0 0 0 0 0 
0 0 0 0 0 0 0 0 0 
0 0 0 0 0 0 0 0 0 
0 0 0 0 0 0 0 0 0 
0 0 0 0 0 0 0 0 0 
0 0 0 0 0 0 0 0 0 
0 0 0 0 0 0 0 0 0 
0 0 0 0 0 0 0 0 0 
0 0 0 0 0 0 0 0 0 
0 0 0 0 0 0 0 0 0 
0 0 0 0 0 0 0 0 0 
0 0 0 0 0 0 0 0 0 
0 0 0 0 0 0 0 0 0 
0 0 0 0 0 0 0 0 0 
0 0 0 0 0 0 0 0 0 
0 0 0 0 0 0 0 0 0 
0 0 0 0 0 0 0 0 0 
0 0 0 0 0 0 0 0 0 
0 0 0 0 0 0 0 0 0 
0 0 0 0 0 0 0 0 0 
0 0 0 0 0 0 0 0 0 
0 0 0 0 0 0 0 0 0 
0 0 0 0 0 0 0 0 0 
0 0 0 0 0 0 0 0 0 
0 0 0 0 0 0 0 0 0 
0 0 0 0 0 0 0 0 0 
0 0 0 0 0 0 0 0 0 
0 0 0 0 0 0 0 0 0 
0 0 0 0 0 0 0 0 0 
0 0 0 0 0 0 0 0 0 
0 0 0 0 0 0 0 0 0 
0 0 0 0 0 0 0 0 0 
0 0 0 0 0 0 0 0 0 
0 0 0 0 0 0 0 0 0 
0 0 0 0 0 0 0 0 0 
0 0 0 0 0 0 0 0 0 
0 0 0 0 0 0 0 0 0 
0 0 0 0 0 0 0 0 0 
0 0 0 0 0 0 0 0 0 
0 0 0 0 0 0 0 0 0 
0 0 0 0 0 0 0 0 0 
0 0 0 0 0 0 0 0 0 
0 0 0 0 0 0 0 0 0 
0 0 0 0 0 0 0 0 0 
0 0 0 0 0 0 0 0 0 
0 0 0 0 0 0 0 0 0 
0 0 0 0 0 0 0 0 0 
0 0 0 0 0 0 0 0 0 
0 0 0 0 0 0 0 0 0 
0 0 0 0 0 0 0 0 0 
0 0 0 0 0 0 0 0 0 
0 0 0 0 0 0 0 0 0 
0 0 0 0 0 0 0 0 0 
0 0 0 0 0 0 0 0 0 
0 0 0 0 0 0 0 0 0 
0 0 0 0 0 0 0 0 0 
0 0 0 0 0 0 0 0 0 
0 0 0 0 0 0 0 0 0 
0 0 0 0 0 0 0 0 0 
0 0 0 0 0 0 0 0 0 
0 0 0 0 0 0 0 0 0 
0 0 0 0 0 0 0 0 0 
0 0 0 0 0 0 0 0 0 
0 0 0 0 0 0 0 0 0 
0 0 0 0 0 0 0 0 0 
0 0 0 0 0 0 0 0 0 
0 0 0 0 0 0 0 0 0 
0 0 0 0 0 0 0 0 0 
0 0 0 0 0 0 0 0 0 
0 0 0 0 0 0 0 0 0 
0 0 0 0 0 0 0 0 0 
0 0 0 0 0 0 0 0 0 
0 0 0 0 0 0 0 0 0 
0 0 0 0 0 0 0 0 0 
0 0 0 0 0 0 0 0 0 
0 0 0 0 0 0 0 0 0 
0 0 0 0 0 0 0 0 0 
0 0 0 0 0 0 0 0 0 
0 0 0 0 0 0 0 0 0 
0 0 0 0 0 0 0 0 0 
0 0 0 0 0 0 0 0 0 
0 0 0 0 0 0 0 0 0 
0 0 0 0 0 0 0 0 0 
0 0 0 0 0 0 0 0 0 
0 0 0 0 0 0 0 0 0 
0 0 0 0 0 0 0 0 0 
0 0 0 0 0 0 0 0 0 
0 0 0 0 0 0 0 0 0 
0 0 0 0 0 0 0 0 0 
0 0 0 0 0 0 0 0 0 
0 0 0 0 0 0 0 0 0 
0 0 0 0 0 0 0 0 0 
0 0 0 0 0 0 0 0 0 
0 0 0 0 0 0 0 0 0 
0 0 0 0 0 0 0 0 0 
0 0 0 0 0 0 0 0 0 
0 0 0 0 0 0 0 0 0 
0 0 0 0 0 0 0 0 0 
0 0 0 0 0 0 0 0 0 
0 0 0 0 0 0 0 0 0 
0 0 0 0 0 0 0 0 0 
0 0 0 0 0 0 0 0 0 
0 0 0 0 0 0 0 0 0 
0 0 0 0 0 0 0 0 0 
0 0 0 0 0 0 0 0 0 
0 0 0 0 0 0 0 0 0 
0 0 0 0 0 0 0 0 0 
0 0 0 0 0 0 0 0 0 
0 0 0 0 0 0 0 0 0 
0 0 0 0 0 0 0 0 0 
0 0 0 0 0 0 0 0 0 
0 0 0 0 0 0 0 0 0 
0 0 0 0 0 0 0 0 0 
0 0 0 0 0 0 0 0 0 
0 0 0 0 0 0 0 0 0 
0 0 0 0 0 0 0 0 0 
0 0 0 0 0 0 0 0 0 
0 0 0 0 0 0 0 0 0 
0 0 0 0 0 0 0 0 0 
0 0 0 0 0 0 0 0 0 
0 0 0 0 0 0 0 0 0 
0 0 0 0 0 0 0 0 0 
0 0 0 0 0 0 0 0 0 
0 0 0 0 0 0 0 0 0 
0 0 0 0 0 0 0 0 0 
0 0 0 0 0 0 0 0 0 
0 0 0 0 0 0 0 0 0 
0 0 0 0 0 0 0 0 0 
0 0 0 0 0 0 0 0 0 
0 0 0 0 0 0 0 0 0 
0 0 0 0 0 0 0 0 0 
0 0 0 0 0 0 0 0 0 
0 0 0 0 0 0 0 0 0 
0 0 0 0 0 0 0 0 0 
0 0 0 0 0 0 0 0 0 
0 0 0 0 0 0 0 0 0 
0 0 0 0 0 0 0 0 0 
0 0 0 0 0 0 0 0 0 
0 0 0 0 0 0 0 0 0 
0 0 0 0 0 0 0 0 0 
0 0 0 0 0 0 0 0 0 
0 0 0 0 0 0 0 0 0 
0 0 0 0 0 0 0 0 0 
0 0 0 0 0 0 0 0 0 
0 0 0 0 0 0 0 0 0 
0 0 0 0 0 0 0 0 0 
0 0 0 0 0 0 0 0 0 
0 0 0 0 0 0 0 0 0 
0 0 0 0 0 0 0 0 0 
0 0 0 0 0 0 0 0 0 
0 0 0 0 0 0 0 0 0 
0 0 0 0 0 0 0 0 0 
0 0 0 0 0 0 0 0 0 
0 0 0 0 0 0 0 0 0 
0 0 0 0 0 0 0 0 0 
0 0 0 0 0 0 0 0 0 
0 0 0 0 0 0 0 0 0 
0 0 0 0 0 0 0 0 0 
0 0 0 0 0 0 0 0 0 
0 0 0 0 0 0 0 0 0 
0 0 0 0 0 0 0 0 0 
0 0 0 0 0 0 0 0 0 
0 0 0 0 0 0 0 0 0 
0 0 0 0 0 0 0 0 0 
0 0 0 0 0 0 0 0 0 
0 0 0 0 0 0 0 0 0 
0 0 0 0 0 0 0 0 0 
0 0 0 0 0 0 0 0 0 
0 0 0 0 0 0 0 0 0 
0 0 0 0 0 0 0 0 0 
0 0 0 0 0 0 0 0 0 
0 0 0 0 0 0 0 0 0 
0 0 0 0 0 0 0 0 0 
0 0 0 0 0 0 0 0 0 
0 0 0 0 0 0 0 0 0 
0 0 0 0 0 0 0 0 0 
0 0 0 0 0 0 0 0 0 
0 0 0 0 0 0 0 0 0 
0 0 0 0 0 0 0 0 0 
0 0 0 0 0 0 0 0 0 
0 0 0 0 0 0 0 0 0 
0 0 0 0 0 0 0 0 0 
0 0 0 0 0 0 0 0 0 
0 0 0 0 0 0 0 0 0 
0 0 0 0 0 0 0 0 0 
0 0 0 0 0 0 0 0 0 
0 0 0 0 0 0 0 0 0 
0 0 0 0 0 0 0 0 0 
0 0 0 0 0 0 0 0 0 
0 0 0 0 0 0 0 0 0 
0 0 0 0 0 0 0 0 0 
0 0 0 0 0 0 0 0 0 
0 0 0 0 0 0 0 0 0 
0 0 0 0 0 0 0 0 0 
0 0 0 0 0 0 0 0 0 
0 0 0 0 0 0 0 0 0 
0 0 0 0 0 0 0 0 0 
0 0 0 0 0 0 0 0 0 
0 0 0 0 0 0 0 0 0 
0 0 0 0 0 0 0 0 0 
0 0 0 0 0 0 0 0 0 
0 0 0 0 0 0 0 0 0 
0 0 0 0 0 0 0 0 0 
0 0 0 0 0 0 0 0 0 
0 0 0 0 0 0 0 0 0 
0 0 0 0 0 0 0 0 0 
0 0 0 0 0 0 0 0 0 
0 0 0 0 0 0 0 0 0 
0 0 0 0 0 0 0 0 0 
0 0 0 0 0 0 0 0 0 
0 0 0 0 0 0 0 0 0 
0 0 0 0 0 0 0 0 0 
0 0 0 0 0 0 0 0 0 
0 0 0 0 0 0 0 0 0 
0 0 0 0 0 0 0 0 0 
0 0 0 0 0 0 0 0 0 
0 0 0 0 0 0 0 0 0 
0 0 0 0 0 0 0 0 0 
0 0 0 0 0 0 0 0 0 
0 0 0 0 0 0 0 0 0 
0 0 0 0 0 0 0 0 0 
0 0 0 0 0 0 0 0 0 
0 0 0 0 0 0 0 0 0 
0 0 0 0 0 0 0 0 0 
0 0 0 0 0 0 0 0 0 
0 0 0 0 0 0 0 0 0 
0 0 0 0 0 0 0 0 0 
0 0 0 0 0 0 0 0 0 
0 0 0 0 0 0 0 0 0 
0 0 0 0 0 0 0 0 0 
0 0 0 0 0 0 0 0 0 
0 0 0 0 0 0 0 0 0 
0 0 0 0 0 0 0 0 0 
0 0 0 0 0 0 0 0 0 
0 0 0 0 0 0 0 0 0 
0 0 0 0 0 0 0 0 0 
0 0 0 0 0 0 0 0 0 
0 0 0 0 0 0 0 0 0 
0 0 0 0 0 0 0 0 0 
0 0 0 0 0 0 0 0 0 
0 0 0 0 0 0 0 0 0 
0 0 0 0 0 0 0 0 0 
0 0 0 0 0 0 0 0 0 
0 0 0 0 0 0 0 0 0 
0 0 0 0 0 0 0 0 0 
0 0 0 0 0 0 0 0 0 
0 0 0 0 0 0 0 0 0 
0 0 0 0 0 0 0 0 0 
0 0 0 0 0 0 0 0 0 
0 0 0 0 0 0 0 0 0 
0 0 0 0 0 0 0 0 0 
0 0 0 0 0 0 0 0 0 
0 0 0 0 0 0 0 0 0 
0 0 0 0 0 0 0 0 0 
0 0 0 0 0 0 0 0 0 
0 0 0 0 0 0 0 0 0 
0 0 0 0 0 0 0 0 0 
0 0 0 0 0 0 0 0 0 
0 0 0 0 0 0 0 0 0 
0 0 0 0 0 0 0 0 0 
0 0 0 0 0 0 0 0 0 
0 0 0 0 0 0 0 0 0 
0 0 0 0 0 0 0 0 0 
0 0 0 0 0 0 0 0 0 
0 0 0 0 0 0 0 0 0 
0 0 0 0 0 0 0 0 0 
0 0 0 0 0 0 0 0 0 
0 0 0 0 0 0 0 0 0 
0 0 0 0 0 0 0 0 0 
0 0 0 0 0 0 0 0 0 
0 0 0 0 0 0 0 0 0 
0 0 0 0 0 0 0 0 0 
0 0 0 0 0 0 0 0 0 
0 0 0 0 0 0 0 0 0 
0 0 0 0 0 0 0 0 0 
0 0 0 0 0 0 0 0 0 
0 0 0 0 0 0 0 0 0 
0 0 0 0 0 0 0 0 0 
0 0 0 0 0 0 0 0 0 
0 0 0 0 0 0 0 0 0 
0 0 0 0 0 0 0 0 0 
0 0 0 0 0 0 0 0 0 
0 0 0 0 0 0 0 0 0 
0 0 0 0 0 0 0 0 0 
0 0 0 0 0 0 0 0 0 
0 0 0 0 0 0 0 0 0 
0 0 0 0 0 0 0 0 0 
0 0 0 0 0 0 0 0 0 
0 0 0 0 0 0 0 0 0 
0 0 0 0 0 0 0 0 0 
0 0 0 0 0 0 0 0 0 
0 0 0 0 0 0 0 0 0 
0 0 0 0 0 0 0 0 0 
0 0 0 0 0 0 0 0 0 
0 0 0 0 0 0 0 0 0 
0 0 0 0 0 0 0 0 0 
0 0 0 0 0 0 0 0 0 
0 0 0 0 0 0 0 0 0 
0 0 0 0 0 0 0 0 0 
0 0 0 0 0 0 0 0 0 
0 0 0 0 0 0 0 0 0 
0 0 0 0 0 0 0 0 0 
0 0 0 0 0 0 0 0 0 
0 0 0 0 0 0 0 0 0 
0 0 0 0 0 0 0 0 0 
0 0 0 0 0 0 0 0 0 
0 0 0 0 0 0 0 0 0 
0 0 0 0 0 0 0 0 0 
0 0 0 0 0 0 0 0 0 
0 0 0 0 0 0 0 0 0 
0 0 0 0 0 0 0 0 0 
0 0 0 0 0 0 0 0 0 
0 0 0 0 0 0 0 0 0 
0 0 0 0 0 0 0 0 0 
0 0 0 0 0 0 0 0 0 
0 0 0 0 0 0 0 0 0 
0 0 0 0 0 0 0 0 0 
0 0 0 0 0 0 0 0 0 
0 0 0 0 0 0 0 0 0 
0 0 0 0 0 0 0 0 0 
0 0 0 0 0 0 0 0 0 
0 0 0 0 0 0 0 0 0 
0 0 0 0 0 0 0 0 0 
0 0 0 0 0 0 0 0 0 
0 0 0 0 0 0 0 0 0 
0 0 0 0 0 0 0 0 0 
0 0 0 0 0 0 0 0 0 
0 0 0 0 0 0 0 0 0 
0 0 0 0 0 0 0 0 0 
0 0 0 0 0 0 0 0 0 
0 0 0 0 0 0 0 0 0 
0 0 0 0 0 0 0 0 0 
0 0 0 0 0 0 0 0 0 
0 0 0 0 0 0 0 0 0 
0 0 0 0 0 0 0 0 0 
0 0 0 0 0 0 0 0 0 
0 0 0 0 0 0 0 0 0 
0 0 0 0 0 0 0 0 0 
0 0 0 0 0 0 0 0 0 
0 0 0 0 0 0 0 0 0 
0 0 0 0 0 0 0 0 0 
0 0 0 0 0 0 0 0 0 
0 0 0 0 0 0 0 0 0 
0 0 0 0 0 0 0 0 0 
0 0 0 0 0 0 0 0 0 
0 0 0 0 0 0 0 0 0 
0 0 0 0 0 0 0 0 0 
0 0 0 0 0 0 0 0 0 
0 0 0 0 0 0 0 0 0 
0 0 0 0 0 0 0 0 0 
0 0 0 0 0 0 0 0 0 
0 0 0 0 0 0 0 0 0 
0 0 0 0 0 0 0 0 0 
0 0 0 0 0 0 0 0 0 
0 0 0 0 0 0 0 0 0 
0 0 0 0 0 0 0 0 0 
0 0 0 0 0 0 0 0 0 
0 0 0 0 0 0 0 0 0 
0 0 0 0 0 0 0 0 0 
0 0 0 0 0 0 0 0 0 
0 0 0 0 0 0 0 0 0 
0 0 0 0 0 0 0 0 0 
0 0 0 0 0 0 0 0 0 
0 0 0 0 0 0 0 0 0 
0 0 0 0 0 0 0 0 0 
0 0 0 0 0 0 0 0 0 
0 0 0 0 0 0 0 0 0 
0 0 0 0 0 0 0 0 0 
0 0 0 0 0 0 0 0 0 
0 0 0 0 0 0 0 0 0 
0 0 0 0 0 0 0 0 0 
0 0 0 0 0 0 0 0 0 
0 0 0 0 0 0 0 0 0 
0 0 0 0 0 0 0 0 0 
0 0 0 0 0 0 0 0 0 
0 0 0 0 0 0 0 0 0 
0 0 0 0 0 0 0 0 0 
0 0 0 0 0 0 0 0 0 
0 0 0 0 0 0 0 0 0 
0 0 0 0 0 0 0 0 0 
0 0 0 0 0 0 0 0 0 
0 0 0 0 0 0 0 0 0 
0 0 0 0 0 0 0 0 0 
0 0 0 0 0 0 0 0 0 
0 0 0 0 0 0 0 0 0 
0 0 0 0 0 0 0 0 0 
0 0 0 0 0 0 0 0 0 
0 0 0 0 0 0 0 0 0 
0 0 0 0 0 0 0 0 0 
0 0 0 0 0 0 0 0 0 
0 0 0 0 0 0 0 0 0 
0 0 0 0 0 0 0 0 0 
0 0 0 0 0 0 0 0 0 
0 0 0 0 0 0 0 0 0 
0 0 0 0 0 0 0 0 0 
0 0 0 0 0 0 0 0 0 
0 0 0 0 0 0 0 0 0 
0 0 0 0 0 0 0 0 0 
0 0 0 0 0 0 0 0 0 
0 0 0 0 0 0 0 0 0 
0 0 0 0 0 0 0 0 0 
0 0 0 0 0 0 0 0 0 
0 0 0 0 0 0 0 0 0 
0 0 0 0 0 0 0 0 0 
0 0 0 0 0 0 0 0 0 
0 0 0 0 0 0 0 0 0 
0 0 0 0 0 0 0 0 0 
0 0 0 0 0 0 0 0 0 
0 0 0 0 0 0 0 0 0 
0 0 0 0 0 0 0 0 0 
0 0 0 0 0 0 0 0 0 
0 0 0 0 0 0 0 0 0 
0 0 0 0 0 0 0 0 0 
0 0 0 0 0 0 0 0 0 
0 0 0 0 0 0 0 0 0 
0 0 0 0 0 0 0 0 0 
0 0 0 0 0 0 0 0 0 
0 0 0 0 0 0 0 0 0 
0 0 0 0 0 0 0 0 0 
0 0 0 0 0 0 0 0 0 
0 0 0 0 0 0 0 0 0 
0 0 0 0 0 0 0 0 0 
0 0 0 0 0 0 0 0 0 
0 0 0 0 0 0 0 0 0 
0 0 0 0 0 0 0 0 0 
0 0 0 0 0 0 0 0 0 
0 0 0 0 0 0 0 0 0 
0 0 0 0 0 0 0 0 0 
0 0 0 0 0 0 0 0 0 
0 0 0 0 0 0 0 0 0 
0 0 0 0 0 0 0 0 0 
0 0 0 0 0 0 0 0 0 
0 0 0 0 0 0 0 0 0 
0 0 0 0 0 0 0 0 0 
0 0 0 0 0 0 0 0 0 
0 0 0 0 0 0 0 0 0 
0 0 0 0 0 0 0 0 0 
0 0 0 0 0 0 0 0 0 
0 0 0 0 0 0 0 0 0 
0 0 0 0 0 0 0 0 0 
0 0 0 0 0 0 0 0 0 
0 0 0 0 0 0 0 0 0 
0 0 0 0 0 0 0 0 0 
0 0 0 0 0 0 0 0 0 
0 0 0 0 0 0 0 0 0 
0 0 0 0 0 0 0 0 0 
0 0 0 0 0 0 0 0 0 
0 0 0 0 0 0 0 0 0 
0 0 0 0 0 0 0 0 0 
0 0 0 0 0 0 0 0 0 
0 0 0 0 0 0 0 0 0 
0 0 0 0 0 0 0 0 0 
0 0 0 0 0 0 0 0 0 
0 0 0 0 0 0 0 0 0 
0 0 0 0 0 0 0 0 0 
0 0 0 0 0 0 0 0 0 
0 0 0 0 0 0 0 0 0 
0 0 0 0 0 0 0 0 0 
0 0 0 0 0 0 0 0 0 
0 0 0 0 0 0 0 0 0 
0 0 0 0 0 0 0 0 0 
0 0 0 0 0 0 0 0 0 
0 0 0 0 0 0 0 0 0 
0 0 0 0 0 0 0 0 0 
0 0 0 0 0 0 0 0 0 
0 0 0 0 0 0 0 0 0 
0 0 0 0 0 0 0 0 0 
0 0 0 0 0 0 0 0 0 
0 0 0 0 0 0 0 0 0 
0 0 0 0 0 0 0 0 0 
0 0 0 0 0 0 0 0 0 
0 0 0 0 0 0 0 0 0 
0 0 0 0 0 0 0 0 0 
0 0 0 0 0 0 0 0 0 
0 0 0 0 0 0 0 0 0 
0 0 0 0 0 0 0 0 0 
0 0 0 0 0 0 0 0 0 
0 0 0 0 0 0 0 0 0 
0 0 0 0 0 0 0 0 0 
0 0 0 0 0 0 0 0 0 
0 0 0 0 0 0 0 0 0 
0 0 0 0 0 0 0 0 0 
0 0 0 0 0 0 0 0 0 
0 0 0 0 0 0 0 0 0 
0 0 0 0 0 0 0 0 0 
0 0 0 0 0 0 0 0 0 
0 0 0 0 0 0 0 0 0 
0 0 0 0 0 0 0 0 0 
0 0 0 0 0 0 0 0 0 
0 0 0 0 0 0 0 0 0 
0 0 0 0 0 0 0 0 0 
0 0 0 0 0 0 0 0 0 
0 0 0 0 0 0 0 0 0 
0 0 0 0 0 0 0 0 0 
0 0 0 0 0 0 0 0 0 
0 0 0 0 0 0 0 0 0 
0 0 0 0 0 0 0 0 0 
0 0 0 0 0 0 0 0 0 
0 0 0 0 0 0 0 0 0 
0 0 0 0 0 0 0 0 0 
0 0 0 0 0 0 0 0 0 
0 0 0 0 0 0 0 0 0 
0 0 0 0 0 0 0 0 0 
0 0 0 0 0 0 0 0 0 
0 0 0 0 0 0 0 0 0 
0 0 0 0 0 0 0 0 0 
0 0 0 0 0 0 0 0 0 
0 0 0 0 0 0 0 0 0 
0 0 0 0 0 0 0 0 0 
0 0 0 0 0 0 0 0 0 
0 0 0 0 0 0 0 0 0 
0 0 0 0 0 0 0 0 0 
0 0 0 0 0 0 0 0 0 
0 0 0 0 0 0 0 0 0 
0 0 0 0 0 0 0 0 0 
0 0 0 0 0 0 0 0 0 
0 0 0 0 0 0 0 0 0 
0 0 0 0 0 0 0 0 0 
0 0 0 0 0 0 0 0 0 
0 0 0 0 0 0 0 0 0 
0 0 0 0 0 0 0 0 0 
0 0 0 0 0 0 0 0 0 
0 0 0 0 0 0 0 0 0 
0 0 0 0 0 0 0 0 0 
0 0 0 0 0 0 0 0 0 
0 0 0 0 0 0 0 0 0 
0 0 0 0 0 0 0 0 0 
0 0 0 0 0 0 0 0 0 
0 0 0 0 0 0 0 0 0 
0 0 0 0 0 0 0 0 0 
0 0 0 0 0 0 0 0 0 
0 0 0 0 0 0 0 0 0 
0 0 0 0 0 0 0 0 0 
0 0 0 0 0 0 0 0 0 
0 0 0 0 0 0 0 0 0 
0 0 0 0 0 0 0 0 0 
0 0 0 0 0 0 0 0 0 
0 0 0 0 0 0 0 0 0 
0 0 0 0 0 0 0 0 0 
0 0 0 0 0 0 0 0 0 
0 0 0 0 0 0 0 0 0 
0 0 0 0 0 0 0 0 0 
0 0 0 0 0 0 0 0 0 
0 0 0 0 0 0 0 0 0 
0 0 0 0 0 0 0 0 0 
0 0 0 0 0 0 0 0 0 
0 0 0 0 0 0 0 0 0 
0 0 0 0 0 0 0 0 0 
0 0 0 0 0 0 0 0 0 
0 0 0 0 0 0 0 0 0 
0 0 0 0 0 0 0 0 0 
0 0 0 0 0 0 0 0 0 
0 0 0 0 0 0 0 0 0 
0 0 0 0 0 0 0 0 0 
0 0 0 0 0 0 0 0 0 
0 0 0 0 0 0 0 0 0 
0 0 0 0 0 0 0 0 0 
0 0 0 0 0 0 0 0 0 
0 0 0 0 0 0 0 0 0 
0 0 0 0 0 0 0 0 0 
0 0 0 0 0 0 0 0 0 
0 0 0 0 0 0 0 0 0 
0 0 0 0 0 0 0 0 0 
0 0 0 0 0 0 0 0 0 
0 0 0 0 0 0 0 0 0 
0 0 0 0 0 0 0 0 0 
0 0 0 0 0 0 0 0 0 
0 0 0 0 0 0 0 0 0 
0 0 0 0 0 0 0 0 0 
0 0 0 0 0 0 0 0 0 
0 0 0 0 0 0 0 0 0 
0 0 0 0 0 0 0 0 0 
0 0 0 0 0 0 0 0 0 
0 0 0 0 0 0 0 0 0 
0 0 0 0 0 0 0 0 0 
0 0 0 0 0 0 0 0 0 
0 0 0 0 0 0 0 0 0 
0 0 0 0 0 0 0 0 0 
0 0 0 0 0 0 0 0 0 
0 0 0 0 0 0 0 0 0 
0 0 0 0 0 0 0 0 0 
0 0 0 0 0 0 0 0 0 
0 0 0 0 0 0 0 0 0 
0 0 0 0 0 0 0 0 0 
0 0 0 0 0 0 0 0 0 
0 0 0 0 0 0 0 0 0 
0 0 0 0 0 0 0 0 0 
0 0 0 0 0 0 0 0 0 
0 0 0 0 0 0 0 0 0 
0 0 0 0 0 0 0 0 0 
0 0 0 0 0 0 0 0 0 
0 0 0 0 0 0 0 0 0 
0 0 0 0 0 0 0 0 0 
0 0 0 0 0 0 0 0 0 
0 0 0 0 0 0 0 0 0 
0 0 0 0 0 0 0 0 0 
0 0 0 0 0 0 0 0 0 
0 0 0 0 0 0 0 0 0 
0 0 0 0 0 0 0 0 0 
0 0 0 0 0 0 0 0 0 
0 0 0 0 0 0 0 0 0 
0 0 0 0 0 0 0 0 0 
0 0 0 0 0 0 0 0 0 
0 0 0 0 0 0 0 0 0 
0 0 0 0 0 0 0 0 0 
0 0 0 0 0 0 0 0 0 
0 0 0 0 0 0 0 0 0 
0 0 0 0 0 0 0 0 0 
0 0 0 0 0 0 0 0 0 
0 0 0 0 0 0 0 0 0 
0 0 0 0 0 0 0 0 0 
0 0 0 0 0 0 0 0 0 
0 0 0 0 0 0 0 0 0 
0 0 0 0 0 0 0 0 0 
0 0 0 0 0 0 0 0 0 
0 0 0 0 0 0 0 0 0 
0 0 0 0 0 0 0 0 0 
0 0 0 0 0 0 0 0 0 
0 0 0 0 0 0 0 0 0 
0 0 0 0 0 0 0 0 0 
0 0 0 0 0 0 0 0 0 
0 0 0 0 0 0 0 0 0 
0 0 0 0 0 0 0 0 0 
0 0 0 0 0 0 0 0 0 
0 0 0 0 0 0 0 0 0 
0 0 0 0 0 0 0 0 0 
0 0 0 0 0 0 0 0 0 
0 0 0 0 0 0 0 0 0 
0 0 0 0 0 0 0 0 0 
0 0 0 0 0 0 0 0 0 
0 0 0 0 0 0 0 0 0 
0 0 0 0 0 0 0 0 0 
0 0 0 0 0 0 0 0 0 
0 0 0 0 0 0 0 0 0 
0 0 0 0 0 0 0 0 0 
0 0 0 0 0 0 0 0 0 
0 0 0 0 0 0 0 0 0 
0 0 0 0 0 0 0 0 0 
0 0 0 0 0 0 0 0 0 
0 0 0 0 0 0 0 0 0 
0 0 0 0 0 0 0 0 0 
0 0 0 0 0 0 0 0 0 
0 0 0 0 0 0 0 0 0 
0 0 0 0 0 0 0 0 0 
0 0 0 0 0 0 0 0 0 
0 0 0 0 0 0 0 0 0 
0 0 0 0 0 0 0 0 0 
0 0 0 0 0 0 0 0 0 
0 0 0 0 0 0 0 0 0 
0 0 0 0 0 0 0 0 0 
0 0 0 0 0 0 0 0 0 
0 0 0 0 0 0 0 0 0 
0 0 0 0 0 0 0 0 0 
0 0 0 0 0 0 0 0 0 
0 0 0 0 0 0 0 0 0 
0 0 0 0 0 0 0 0 0 
0 0 0 0 0 0 0 0 0 
0 0 0 0 0 0 0 0 0 
0 0 0 0 0 0 0 0 0 
0 0 0 0 0 0 0 0 0 
0 0 0 0 0 0 0 0 0 
0 0 0 0 0 0 0 0 0 
0 0 0 0 0 0 0 0 0 
0 0 0 0 0 0 0 0 0 
0 0 0 0 0 0 0 0 0 
0 0 0 0 0 0 0 0 0 
0 0 0 0 0 0 0 0 0 
0 0 0 0 0 0 0 0 0 
0 0 0 0 0 0 0 0 0 
0 0 0 0 0 0 0 0 0 
0 0 0 0 0 0 0 0 0 
0 0 0 0 0 0 0 0 0 
0 0 0 0 0 0 0 0 0 
0 0 0 0 0 0 0 0 0 
0 0 0 0 0 0 0 0 0 
0 0 0 0 0 0 0 0 0 
0 0 0 0 0 0 0 0 0 
0 0 0 0 0 0 0 0 0 
0 0 0 0 0 0 0 0 0 
0 0 0 0 0 0 0 0 0 
0 0 0 0 0 0 0 0 0 
0 0 0 0 0 0 0 0 0 
0 0 0 0 0 0 0 0 0 
0 0 0 0 0 0 0 0 0 
0 0 0 0 0 0 0 0 0 
0 0 0 0 0 0 0 0 0 
0 0 0 0 0 0 0 0 0 
0 0 0 0 0 0 0 0 0 
0 0 0 0 0 0 0 0 0 
0 0 0 0 0 0 0 0 0 
0 0 0 0 0 0 0 0 0 
0 0 0 0 0 0 0 0 0 
0 0 0 0 0 0 0 0 0 
0 0 0 0 0 0 0 0 0 
0 0 0 0 0 0 0 0 0 
0 0 0 0 0 0 0 0 0 
0 0 0 0 0 0 0 0 0 
0 0 0 0 0 0 0 0 0 
0 0 0 0 0 0 0 0 0 
0 0 0 0 0 0 0 0 0 
0 0 0 0 0 0 0 0 0 
0 0 0 0 0 0 0 0 0 
0 0 0 0 0 0 0 0 0 
0 0 0 0 0 0 0 0 0 
0 0 0 0 0 0 0 0 0 
0 0 0 0 0 0 0 0 0 
0 0 0 0 0 0 0 0 0 
0 0 0 0 0 0 0 0 0 
0 0 0 0 0 0 0 0 0 
0 0 0 0 0 0 0 0 0 
0 0 0 0 0 0 0 0 0 
0 0 0 0 0 0 0 0 0 
0 0 0 0 0 0 0 0 0 
0 0 0 0 0 0 0 0 0 
0 0 0 0 0 0 0 0 0 
0 0 0 0 0 0 0 0 0 
0 0 0 0 0 0 0 0 0 
0 0 0 0 0 0 0 0 0 
0 0 0 0 0 0 0 0 0 
0 0 0 0 0 0 0 0 0 
0 0 0 0 0 0 0 0 0 
0 0 0 0 0 0 0 0 0 
0 0 0 0 0 0 0 0 0 
0 0 0 0 0 0 0 0 0 
0 0 0 0 0 0 0 0 0 
0 0 0 0 0 0 0 0 0 
0 0 0 0 0 0 0 0 0 
0 0 0 0 0 0 0 0 0 
0 0 0 0 0 0 0 0 0 
0 0 0 0 0 0 0 0 0 
0 0 0 0 0 0 0 0 0 
0 0 0 0 0 0 0 0 0 
0 0 0 0 0 0 0 0 0 
0 0 0 0 0 0 0 0 0 
0 0 0 0 0 0 0 0 0 
0 0 0 0 0 0 0 0 0 
0 0 0 0 0 0 0 0 0 
0 0 0 0 0 0 0 0 0 
0 0 0 0 0 0 0 0 0 
0 0 0 0 0 0 0 0 0 
0 0 0 0 0 0 0 0 0 
0 0 0 0 0 0 0 0 0 
0 0 0 0 0 0 0 0 0 
0 0 0 0 0 0 0 0 0 
0 0 0 0 0 0 0 0 0 
0 0 0 0 0 0 0 0 0 
0 0 0 0 0 0 0 0 0 
0 0 0 0 0 0 0 0 0 
0 0 0 0 0 0 0 0 0 
0 0 0 0 0 0 0 0 0 
0 0 0 0 0 0 0 0 0 
0 0 0 0 0 0 0 0 0 
0 0 0 0 0 0 0 0 0 
0 0 0 0 0 0 0 0 0 
0 0 0 0 0 0 0 0 0 
0 0 0 0 0 0 0 0 0 
0 0 0 0 0 0 0 0 0 
0 0 0 0 0 0 0 0 0 
0 0 0 0 0 0 0 0 0 
0 0 0 0 0 0 0 0 0 
0 0 0 0 0 0 0 0 0 
0 0 0 0 0 0 0 0 0 
0 0 0 0 0 0 0 0 0 
0 0 0 0 0 0 0 0 0 
0 0 0 0 0 0 0 0 0 
0 0 0 0 0 0 0 0 0 
0 0 0 0 0 0 0 0 0 
0 0 0 0 0 0 0 0 0 
0 0 0 0 0 0 0 0 0 
0 0 0 0 0 0 0 0 0 
0 0 0 0 0 0 0 0 0 
0 0 0 0 0 0 0 0 0 
0 0 0 0 0 0 0 0 0 
0 0 0 0 0 0 0 0 0 
0 0 0 0 0 0 0 0 0 
0 0 0 0 0 0 0 0 0 
0 0 0 0 0 0 0 0 0 
0 0 0 0 0 0 0 0 0 
0 0 0 0 0 0 0 0 0 
0 0 0 0 0 0 0 0 0 
0 0 0 0 0 0 0 0 0 
0 0 0 0 0 0 0 0 0 
0 0 0 0 0 0 0 0 0 
0 0 0 0 0 0 0 0 0 
0 0 0 0 0 0 0 0 0 
0 0 0 0 0 0 0 0 0 
0 0 0 0 0 0 0 0 0 
0 0 0 0 0 0 0 0 0 
0 0 0 0 0 0 0 0 0 
0 0 0 0 0 0 0 0 0 
0 0 0 0 0 0 0 0 0 
0 0 0 0 0 0 0 0 0 
0 0 0 0 0 0 0 0 0 
0 0 0 0 0 0 0 0 0 
0 0 0 0 0 0 0 0 0 
0 0 0 0 0 0 0 0 0 
0 0 0 0 0 0 0 0 0 
0 0 0 0 0 0 0 0 0 
0 0 0 0 0 0 0 0 0 
0 0 0 0 0 0 0 0 0 
0 0 0 0 0 0 0 0 0 
0 0 0 0 0 0 0 0 0 
0 0 0 0 0 0 0 0 0 
0 0 0 0 0 0 0 0 0 
0 0 0 0 0 0 0 0 0 
0 0 0 0 0 0 0 0 0 
0 0 0 0 0 0 0 0 0 
0 0 0 0 0 0 0 0 0 
0 0 0 0 0 0 0 0 0 
0 0 0 0 0 0 0 0 0 
0 0 0 0 0 0 0 0 0 
0 0 0 0 0 0 0 0 0 
0 0 0 0 0 0 0 0 0 
0 0 0 0 0 0 0 0 0 
0 0 0 0 0 0 0 0 0 
0 0 0 0 0 0 0 0 0 
0 0 0 0 0 0 0 0 0 
0 0 0 0 0 0 0 0 0 
0 0 0 0 0 0 0 0 0 
0 0 0 0 0 0 0 0 0 
0 0 0 0 0 0 0 0 0 
0 0 0 0 0 0 0 0 0 
0 0 0 0 0 0 0 0 0 
0 0 0 0 0 0 0 0 0 
0 0 0 0 0 0 0 0 0 
0 0 0 0 0 0 0 0 0 
0 0 0 0 0 0 0 0 0 
0 0 0 0 0 0 0 0 0 
0 0 0 0 0 0 0 0 0 
0 0 0 0 0 0 0 0 0 
0 0 0 0 0 0 0 0 0 
0 0 0 0 0 0 0 0 0 
0 0 0 0 0 0 0 0 0 
0 0 0 0 0 0 0 0 0 
0 0 0 0 0 0 0 0 0 
0 0 0 0 0 0 0 0 0 
0 0 0 0 0 0 0 0 0 
0 0 0 0 0 0 0 0 0 
0 0 0 0 0 0 0 0 0 
0 0 0 0 0 0 0 0 0 
0 0 0 0 0 0 0 0 0 
0 0 0 0 0 0 0 0 0 
0 0 0 0 0 0 0 0 0 
0 0 0 0 0 0 0 0 0 
0 0 0 0 0 0 0 0 0 
0 0 0 0 0 0 0 0 0 
0 0 0 0 0 0 0 0 0 
0 0 0 0 0 0 0 0 0 
0 0 0 0 0 0 0 0 0 
0 0 0 0 0 0 0 0 0 
0 0 0 0 0 0 0 0 0 
0 0 0 0 0 0 0 0 0 
0 0 0 0 0 0 0 0 0 
0 0 0 0 0 0 0 0 0 
0 0 0 0 0 0 0 0 0 
0 0 0 0 0 0 0 0 0 
0 0 0 0 0 0 0 0 0 
0 0 0 0 0 0 0 0 0 
0 0 0 0 0 0 0 0 0 
0 0 0 0 0 0 0 0 0 
0 0 0 0 0 0 0 0 0 
0 0 0 0 0 0 0 0 0 
0 0 0 0 0 0 0 0 0 
0 0 0 0 0 0 0 0 0 
0 0 0 0 0 0 0 0 0 
0 0 0 0 0 0 0 0 0 
0 0 0 0 0 0 0 0 0 
0 0 0 0 0 0 0 0 0 
0 0 0 0 0 0 0 0 0 
0 0 0 0 0 0 0 0 0 
0 0 0 0 0 0 0 0 0 
0 0 0 0 0 0 0 0 0 
0 0 0 0 0 0 0 0 0 
0 0 0 0 0 0 0 0 0 
0 0 0 0 0 0 0 0 0 
0 0 0 0 0 0 0 0 0 
0 0 0 0 0 0 0 0 0 
0 0 0 0 0 0 0 0 0 
0 0 0 0 0 0 0 0 0 
0 0 0 0 0 0 0 0 0 
0 0 0 0 0 0 0 0 0 
0 0 0 0 0 0 0 0 0 
0 0 0 0 0 0 0 0 0 
0 0 0 0 0 0 0 0 0 
0 0 0 0 0 0 0 0 0 
0 0 0 0 0 0 0 0 0 
0 0 0 0 0 0 0 0 0 
0 0 0 0 0 0 0 0 0 
0 0 0 0 0 0 0 0 0 
0 0 0 0 0 0 0 0 0 
0 0 0 0 0 0 0 0 0 
0 0 0 0 0 0 0 0 0 
0 0 0 0 0 0 0 0 0 
0 0 0 0 0 0 0 0 0 
0 0 0 0 0 0 0 0 0 
0 0 0 0 0 0 0 0 0 
0 0 0 0 0 0 0 0 0 
0 0 0 0 0 0 0 0 0 
0 0 0 0 0 0 0 0 0 
0 0 0 0 0 0 0 0 0 
0 0 0 0 0 0 0 0 0 
0 0 0 0 0 0 0 0 0 
0 0 0 0 0 0 0 0 0 
0 0 0 0 0 0 0 0 0 
0 0 0 0 0 0 0 0 0 
0 0 0 0 0 0 0 0 0 
0 0 0 0 0 0 0 0 0 
0 0 0 0 0 0 0 0 0 
0 0 0 0 0 0 0 0 0 
0 0 0 0 0 0 0 0 0 
0 0 0 0 0 0 0 0 0 
0 0 0 0 0 0 0 0 0 
0 0 0 0 0 0 0 0 0 
0 0 0 0 0 0 0 0 0 
0 0 0 0 0 0 0 0 0 
0 0 0 0 0 0 0 0 0 
0 0 0 0 0 0 0 0 0 
0 0 0 0 0 0 0 0 0 
0 0 0 0 0 0 0 0 0 
0 0 0 0 0 0 0 0 0 
0 0 0 0 0 0 0 0 0 
0 0 0 0 0 0 0 0 0 
0 0 0 0 0 0 0 0 0 
0 0 0 0 0 0 0 0 0 
0 0 0 0 0 0 0 0 0 
0 0 0 0 0 0 0 0 0 
0 0 0 0 0 0 0 0 0 
0 0 0 0 0 0 0 0 0 
0 0 0 0 0 0 0 0 0 
0 0 0 0 0 0 0 0 0 
0 0 0 0 0 0 0 0 0 
0 0 0 0 0 0 0 0 0 
0 0 0 0 0 0 0 0 0 
0 0 0 0 0 0 0 0 0 
0 0 0 0 0 0 0 0 0 
0 0 0 0 0 0 0 0 0 
0 0 0 0 0 0 0 0 0 
0 0 0 0 0 0 0 0 0 
0 0 0 0 0 0 0 0 0 
0 0 0 0 0 0 0 0 0 
0 0 0 0 0 0 0 0 0 
0 0 0 0 0 0 0 0 0 
0 0 0 0 0 0 0 0 0 
0 0 0 0 0 0 0 0 0 
0 0 0 0 0 0 0 0 0 
0 0 0 0 0 0 0 0 0 
0 0 0 0 0 0 0 0 0 
0 0 0 0 0 0 0 0 0 
0 0 0 0 0 0 0 0 0 
0 0 0 0 0 0 0 0 0 
0 0 0 0 0 0 0 0 0 
0 0 0 0 0 0 0 0 0 
0 0 0 0 0 0 0 0 0 
0 0 0 0 0 0 0 0 0 
0 0 0 0 0 0 0 0 0 
0 0 0 0 0 0 0 0 0 
0 0 0 0 0 0 0 0 0 
0 0 0 0 0 0 0 0 0 
0 0 0 0 0 0 0 0 0 
0 0 0 0 0 0 0 0 0 
0 0 0 0 0 0 0 0 0 
0 0 0 0 0 0 0 0 0 
0 0 0 0 0 0 0 0 0 
0 0 0 0 0 0 0 0 0 
0 0 0 0 0 0 0 0 0 
0 0 0 0 0 0 0 0 0 
0 0 0 0 0 0 0 0 0 
0 0 0 0 0 0 0 0 0 
0 0 0 0 0 0 0 0 0 
0 0 0 0 0 0 0 0 0 
0 0 0 0 0 0 0 0 0 
0 0 0 0 0 0 0 0 0 
0 0 0 0 0 0 0 0 0 
0 0 0 0 0 0 0 0 0 
0 0 0 0 0 0 0 0 0 
0 0 0 0 0 0 0 0 0 
0 0 0 0 0 0 0 0 0 
0 0 0 0 0 0 0 0 0 
0 0 0 0 0 0 0 0 0 
0 0 0 0 0 0 0 0 0 
0 0 0 0 0 0 0 0 0 
0 0 0 0 0 0 0 0 0 
0 0 0 0 0 0 0 0 0 
0 0 0 0 0 0 0 0 0 
0 0 0 0 0 0 0 0 0 
0 0 0 0 0 0 0 0 0 
0 0 0 0 0 0 0 0 0 
0 0 0 0 0 0 0 0 0 
0 0 0 0 0 0 0 0 0 
0 0 0 0 0 0 0 0 0 
0 0 0 0 0 0 0 0 0 
0 0 0 0 0 0 0 0 0 
0 0 0 0 0 0 0 0 0 
0 0 0 0 0 0 0 0 0 
0 0 0 0 0 0 0 0 0 
0 0 0 0 0 0 0 0 0 
0 0 0 0 0 0 0 0 0 
0 0 0 0 0 0 0 0 0 
0 0 0 0 0 0 0 0 0 
0 0 0 0 0 0 0 0 0 
0 0 0 0 0 0 0 0 0 
0 0 0 0 0 0 0 0 0 
0 0 0 0 0 0 0 0 0 
0 0 0 0 0 0 0 0 0 
0 0 0 0 0 0 0 0 0 
0 0 0 0 0 0 0 0 0 
0 0 0 0 0 0 0 0 0 
0 0 0 0 0 0 0 0 0 
0 0 0 0 0 0 0 0 0 
0 0 0 0 0 0 0 0 0 
0 0 0 0 0 0 0 0 0 
0 0 0 0 0 0 0 0 0 
0 0 0 0 0 0 0 0 0 
0 0 0 0 0 0 0 0 0 
0 0 0 0 0 0 0 0 0 
0 0 0 0 0 0 0 0 0 
0 0 0 0 0 0 0 0 0 
0 0 0 0 0 0 0 0 0 
0 0 0 0 0 0 0 0 0 
0 0 0 0 0 0 0 0 0 
0 0 0 0 0 0 0 0 0 
0 0 0 0 0 0 0 0 0 
0 0 0 0 0 0 0 0 0 
0 0 0 0 0 0 0 0 0 
0 0 0 0 0 0 0 0 0 
0 0 0 0 0 0 0 0 0 
0 0 0 0 0 0 0 0 0 
0 0 0 0 0 0 0 0 0 
0 0 0 0 0 0 0 0 0 
0 0 0 0 0 0 0 0 0 
0 0 0 0 0 0 0 0 0 
0 0 0 0 0 0 0 0 0 
0 0 0 0 0 0 0 0 0 
0 0 0 0 0 0 0 0 0 
0 0 0 0 0 0 0 0 0 
0 0 0 0 0 0 0 0 0 
0 0 0 0 0 0 0 0 0 
0 0 0 0 0 0 0 0 0 
0 0 0 0 0 0 0 0 0 
0 0 0 0 0 0 0 0 0 
0 0 0 0 0 0 0 0 0 
0 0 0 0 0 0 0 0 0 
0 0 0 0 0 0 0 0 0 
0 0 0 0 0 0 0 0 0 
0 0 0 0 0 0 0 0 0 
0 0 0 0 0 0 0 0 0 
0 0 0 0 0 0 0 0 0 
0 0 0 0 0 0 0 0 0 
0 0 0 0 0 0 0 0 0 
0 0 0 0 0 0 0 0 0 
0 0 0 0 0 0 0 0 0 
0 0 0 0 0 0 0 0 0 
0 0 0 0 0 0 0 0 0 
0 0 0 0 0 0 0 0 0 
0 0 0 0 0 0 0 0 0 
0 0 0 0 0 0 0 0 0 
0 0 0 0 0 0 0 0 0 
0 0 0 0 0 0 0 0 0 
0 0 0 0 0 0 0 0 0 
0 0 0 0 0 0 0 0 0 
0 0 0 0 0 0 0 0 0 
0 0 0 0 0 0 0 0 0 
0 0 0 0 0 0 0 0 0 
0 0 0 0 0 0 0 0 0 
0 0 0 0 0 0 0 0 0 
0 0 0 0 0 0 0 0 0 
0 0 0 0 0 0 0 0 0 
0 0 0 0 0 0 0 0 0 
0 0 0 0 0 0 0 0 0 
0 0 0 0 0 0 0 0 0 
0 0 0 0 0 0 0 0 0 
0 0 0 0 0 0 0 0 0 
0 0 0 0 0 0 0 0 0 
0 0 0 0 0 0 0 0 0 
0 0 0 0 0 0 0 0 0 
0 0 0 0 0 0 0 0 0 
0 0 0 0 0 0 0 0 0 
0 0 0 0 0 0 0 0 0 
0 0 0 0 0 0 0 0 0 
0 0 0 0 0 0 0 0 0 
0 0 0 0 0 0 0 0 0 
0 0 0 0 0 0 0 0 0 
0 0 0 0 0 0 0 0 0 
0 0 0 0 0 0 0 0 0 
0 0 0 0 0 0 0 0 0 
0 0 0 0 0 0 0 0 0 
0 0 0 0 0 0 0 0 0 
0 0 0 0 0 0 0 0 0 
0 0 0 0 0 0 0 0 0 
0 0 0 0 0 0 0 0 0 
0 0 0 0 0 0 0 0 0 
0 0 0 0 0 0 0 0 0 
0 0 0 0 0 0 0 0 0 
0 0 0 0 0 0 0 0 0 
0 0 0 0 0 0 0 0 0 
0 0 0 0 0 0 0 0 0 
0 0 0 0 0 0 0 0 0 
0 0 0 0 0 0 0 0 0 
0 0 0 0 0 0 0 0 0 
0 0 0 0 0 0 0 0 0 
0 0 0 0 0 0 0 0 0 
0 0 0 0 0 0 0 0 0 
0 0 0 0 0 0 0 0 0 
0 0 0 0 0 0 0 0 0 
0 0 0 0 0 0 0 0 0 
0 0 0 0 0 0 0 0 0 
0 0 0 0 0 0 0 0 0 
0 0 0 0 0 0 0 0 0 
0 0 0 0 0 0 0 0 0 
0 0 0 0 0 0 0 0 0 
0 0 0 0 0 0 0 0 0 
0 0 0 0 0 0 0 0 0 
0 0 0 0 0 0 0 0 0 
0 0 0 0 0 0 0 0 0 
0 0 0 0 0 0 0 0 0 
0 0 0 0 0 0 0 0 0 
0 0 0 0 0 0 0 0 0 
0 0 0 0 0 0 0 0 0 
0 0 0 0 0 0 0 0 0 
0 0 0 0 0 0 0 0 0 
0 0 0 0 0 0 0 0 0 
0 0 0 0 0 0 0 0 0 
0 0 0 0 0 0 0 0 0 
0 0 0 0 0 0 0 0 0 
0 0 0 0 0 0 0 0 0 
0 0 0 0 0 0 0 0 0 
0 0 0 0 0 0 0 0 0 
0 0 0 0 0 0 0 0 0 
0 0 0 0 0 0 0 0 0 
0 0 0 0 0 0 0 0 0 
0 0 0 0 0 0 0 0 0 
0 0 0 0 0 0 0 0 0 
0 0 0 0 0 0 0 0 0 
0 0 0 0 0 0 0 0 0 
0 0 0 0 0 0 0 0 0 
0 0 0 0 0 0 0 0 0 
0 0 0 0 0 0 0 0 0 
0 0 0 0 0 0 0 0 0 
0 0 0 0 0 0 0 0 0 
0 0 0 0 0 0 0 0 0 
0 0 0 0 0 0 0 0 0 
0 0 0 0 0 0 0 0 0 
0 0 0 0 0 0 0 0 0 
0 0 0 0 0 0 0 0 0 
0 0 0 0 0 0 0 0 0 
0 0 0 0 0 0 0 0 0 
0 0 0 0 0 0 0 0 0 
0 0 0 0 0 0 0 0 0 
0 0 0 0 0 0 0 0 0 
0 0 0 0 0 0 0 0 0 
0 0 0 0 0 0 0 0 0 
0 0 0 0 0 0 0 0 0 
0 0 0 0 0 0 0 0 0 
0 0 0 0 0 0 0 0 0 
0 0 0 0 0 0 0 0 0 
0 0 0 0 0 0 0 0 0 
0 0 0 0 0 0 0 0 0 
0 0 0 0 0 0 0 0 0 
0 0 0 0 0 0 0 0 0 
0 0 0 0 0 0 0 0 0 
0 0 0 0 0 0 0 0 0 
0 0 0 0 0 0 0 0 0 
0 0 0 0 0 0 0 0 0 
0 0 0 0 0 0 0 0 0 
0 0 0 0 0 0 0 0 0 
0 0 0 0 0 0 0 0 0 
0 0 0 0 0 0 0 0 0 
0 0 0 0 0 0 0 0 0 
0 0 0 0 0 0 0 0 0 
0 0 0 0 0 0 0 0 0 
0 0 0 0 0 0 0 0 0 
0 0 0 0 0 0 0 0 0 
0 0 0 0 0 0 0 0 0 
0 0 0 0 0 0 0 0 0 
0 0 0 0 0 0 0 0 0 
0 0 0 0 0 0 0 0 0 
0 0 0 0 0 0 0 0 0 
0 0 0 0 0 0 0 0 0 
0 0 0 0 0 0 0 0 0 
0 0 0 0 0 0 0 0 0 
0 0 0 0 0 0 0 0 0 
0 0 0 0 0 0 0 0 0 
0 0 0 0 0 0 0 0 0 
0 0 0 0 0 0 0 0 0 
0 0 0 0 0 0 0 0 0 
0 0 0 0 0 0 0 0 0 
0 0 0 0 0 0 0 0 0 
0 0 0 0 0 0 0 0 0 
0 0 0 0 0 0 0 0 0 
0 0 0 0 0 0 0 0 0 
0 0 0 0 0 0 0 0 0 
0 0 0 0 0 0 0 0 0 
0 0 0 0 0 0 0 0 0 
0 0 0 0 0 0 0 0 0 
0 0 0 0 0 0 0 0 0 
0 0 0 0 0 0 0 0 0 
0 0 0 0 0 0 0 0 0 
0 0 0 0 0 0 0 0 0 
0 0 0 0 0 0 0 0 0 
0 0 0 0 0 0 0 0 0 
0 0 0 0 0 0 0 0 0 
0 0 0 0 0 0 0 0 0 
0 0 0 0 0 0 0 0 0 
0 0 0 0 0 0 0 0 0 
0 0 0 0 0 0 0 0 0 
0 0 0 0 0 0 0 0 0 
0 0 0 0 0 0 0 0 0 
0 0 0 0 0 0 0 0 0 
0 0 0 0 0 0 0 0 0 
0 0 0 0 0 0 0 0 0 
0 0 0 0 0 0 0 0 0 
0 0 0 0 0 0 0 0 0 
0 0 0 0 0 0 0 0 0 
0 0 0 0 0 0 0 0 0 
0 0 0 0 0 0 0 0 0 
0 0 0 0 0 0 0 0 0 
0 0 0 0 0 0 0 0 0 
0 0 0 0 0 0 0 0 0 
0 0 0 0 0 0 0 0 0 
0 0 0 0 0 0 0 0 0 
0 0 0 0 0 0 0 0 0 
0 0 0 0 0 0 0 0 0 
0 0 0 0 0 0 0 0 0 
0 0 0 0 0 0 0 0 0 
0 0 0 0 0 0 0 0 0 
0 0 0 0 0 0 0 0 0 
0 0 0 0 0 0 0 0 0 
0 0 0 0 0 0 0 0 0 
0 0 0 0 0 0 0 0 0 
0 0 0 0 0 0 0 0 0 
0 0 0 0 0 0 0 0 0 
0 0 0 0 0 0 0 0 0 
0 0 0 0 0 0 0 0 0 
0 0 0 0 0 0 0 0 0 
0 0 0 0 0 0 0 0 0 
0 0 0 0 0 0 0 0 0 
0 0 0 0 0 0 0 0 0 
0 0 0 0 0 0 0 0 0 
0 0 0 0 0 0 0 0 0 
0 0 0 0 0 0 0 0 0 
0 0 0 0 0 0 0 0 0 
0 0 0 0 0 0 0 0 0 
0 0 0 0 0 0 0 0 0 
0 0 0 0 0 0 0 0 0 
0 0 0 0 0 0 0 0 0 
0 0 0 0 0 0 0 0 0 
0 0 0 0 0 0 0 0 0 
0 0 0 0 0 0 0 0 0 
0 0 0 0 0 0 0 0 0 
0 0 0 0 0 0 0 0 0 
0 0 0 0 0 0 0 0 0 
0 0 0 0 0 0 0 0 0 
0 0 0 0 0 0 0 0 0 
0 0 0 0 0 0 0 0 0 
0 0 0 0 0 0 0 0 0 
0 0 0 0 0 0 0 0 0 
0 0 0 0 0 0 0 0 0 
0 0 0 0 0 0 0 0 0 
0 0 0 0 0 0 0 0 0 
0 0 0 0 0 0 0 0 0 
0 0 0 0 0 0 0 0 0 
0 0 0 0 0 0 0 0 0 
0 0 0 0 0 0 0 0 0 
0 0 0 0 0 0 0 0 0 
0 0 0 0 0 0 0 0 0 
0 0 0 0 0 0 0 0 0 
0 0 0 0 0 0 0 0 0 
0 0 0 0 0 0 0 0 0 
0 0 0 0 0 0 0 0 0 
0 0 0 0 0 0 0 0 0 
0 0 0 0 0 0 0 0 0 
0 0 0 0 0 0 0 0 0 
0 0 0 0 0 0 0 0 0 
0 0 0 0 0 0 0 0 0 
0 0 0 0 0 0 0 0 0 
0 0 0 0 0 0 0 0 0 
0 0 0 0 0 0 0 0 0 
0 0 0 0 0 0 0 0 0 
0 0 0 0 0 0 0 0 0 
0 0 0 0 0 0 0 0 0 
0 0 0 0 0 0 0 0 0 
0 0 0 0 0 0 0 0 0 
0 0 0 0 0 0 0 0 0 
0 0 0 0 0 0 0 0 0 
0 0 0 0 0 0 0 0 0 
0 0 0 0 0 0 0 0 0 
0 0 0 0 0 0 0 0 0 
0 0 0 0 0 0 0 0 0 
0 0 0 0 0 0 0 0 0 
0 0 0 0 0 0 0 0 0 
0 0 0 0 0 0 0 0 0 
0 0 0 0 0 0 0 0 0 
0 0 0 0 0 0 0 0 0 
0 0 0 0 0 0 0 0 0 
0 0 0 0 0 0 0 0 0 
0 0 0 0 0 0 0 0 0 
0 0 0 0 0 0 0 0 0 
0 0 0 0 0 0 0 0 0 
0 0 0 0 0 0 0 0 0 
0 0 0 0 0 0 0 0 0 
0 0 0 0 0 0 0 0 0 
0 0 0 0 0 0 0 0 0 
0 0 0 0 0 0 0 0 0 
0 0 0 0 0 0 0 0 0 
0 0 0 0 0 0 0 0 0 
0 0 0 0 0 0 0 0 0 
0 0 0 0 0 0 0 0 0 
0 0 0 0 0 0 0 0 0 
0 0 0 0 0 0 0 0 0 
0 0 0 0 0 0 0 0 0 
0 0 0 0 0 0 0 0 0 
0 0 0 0 0 0 0 0 0 
0 0 0 0 0 0 0 0 0 
0 0 0 0 0 0 0 0 0 
0 0 0 0 0 0 0 0 0 
0 0 0 0 0 0 0 0 0 
0 0 0 0 0 0 0 0 0 
0 0 0 0 0 0 0 0 0 
0 0 0 0 0 0 0 0 0 
0 0 0 0 0 0 0 0 0 
0 0 0 0 0 0 0 0 0 
0 0 0 0 0 0 0 0 0 
0 0 0 0 0 0 0 0 0 
0 0 0 0 0 0 0 0 0 
0 0 0 0 0 0 0 0 0 
0 0 0 0 0 0 0 0 0 
0 0 0 0 0 0 0 0 0 
0 0 0 0 0 0 0 0 0 
0 0 0 0 0 0 0 0 0 
0 0 0 0 0 0 0 0 0 
0 0 0 0 0 0 0 0 0 
0 0 0 0 0 0 0 0 0 
0 0 0 0 0 0 0 0 0 
0 0 0 0 0 0 0 0 0 
0 0 0 0 0 0 0 0 0 
0 0 0 0 0 0 0 0 0 
0 0 0 0 0 0 0 0 0 
0 0 0 0 0 0 0 0 0 
0 0 0 0 0 0 0 0 0 
0 0 0 0 0 0 0 0 0 
0 0 0 0 0 0 0 0 0 
0 0 0 0 0 0 0 0 0 
0 0 0 0 0 0 0 0 0 
0 0 0 0 0 0 0 0 0 
0 0 0 0 0 0 0 0 0 
0 0 0 0 0 0 0 0 0 
0 0 0 0 0 0 0 0 0 
0 0 0 0 0 0 0 0 0 
0 0 0 0 0 0 0 0 0 
0 0 0 0 0 0 0 0 0 
0 0 0 0 0 0 0 0 0 
0 0 0 0 0 0 0 0 0 
0 0 0 0 0 0 0 0 0 
0 0 0 0 0 0 0 0 0 
0 0 0 0 0 0 0 0 0 
0 0 0 0 0 0 0 0 0 
0 0 0 0 0 0 0 0 0 
0 0 0 0 0 0 0 0 0 
0 0 0 0 0 0 0 0 0 
0 0 0 0 0 0 0 0 0 
0 0 0 0 0 0 0 0 0 
0 0 0 0 0 0 0 0 0 
0 0 0 0 0 0 0 0 0 
0 0 0 0 0 0 0 0 0 
0 0 0 0 0 0 0 0 0 
0 0 0 0 0 0 0 0 0 
0 0 0 0 0 0 0 0 0 
0 0 0 0 0 0 0 0 0 
0 0 0 0 0 0 0 0 0 
0 0 0 0 0 0 0 0 0 
0 0 0 0 0 0 0 0 0 
0 0 0 0 0 0 0 0 0 
0 0 0 0 0 0 0 0 0 
0 0 0 0 0 0 0 0 0 
0 0 0 0 0 0 0 0 0 
0 0 0 0 0 0 0 0 0 
0 0 0 0 0 0 0 0 0 
0 0 0 0 0 0 0 0 0 
0 0 0 0 0 0 0 0 0 
0 0 0 0 0 0 0 0 0 
0 0 0 0 0 0 0 0 0 
0 0 0 0 0 0 0 0 0 
0 0 0 0 0 0 0 0 0 
0 0 0 0 0 0 0 0 0 
0 0 0 0 0 0 0 0 0 
0 0 0 0 0 0 0 0 0 
0 0 0 0 0 0 0 0 0 
0 0 0 0 0 0 0 0 0 
0 0 0 0 0 0 0 0 0 
0 0 0 0 0 0 0 0 0 
0 0 0 0 0 0 0 0 0 
0 0 0 0 0 0 0 0 0 
0 0 0 0 0 0 0 0 0 
0 0 0 0 0 0 0 0 0 
0 0 0 0 0 0 0 0 0 
0 0 0 0 0 0 0 0 0 
0 0 0 0 0 0 0 0 0 
0 0 0 0 0 0 0 0 0 
0 0 0 0 0 0 0 0 0 
0 0 0 0 0 0 0 0 0 
0 0 0 0 0 0 0 0 0 
0 0 0 0 0 0 0 0 0 
0 0 0 0 0 0 0 0 0 
0 0 0 0 0 0 0 0 0 
0 0 0 0 0 0 0 0 0 
0 0 0 0 0 0 0 0 0 
0 0 0 0 0 0 0 0 0 
0 0 0 0 0 0 0 0 0 
0 0 0 0 0 0 0 0 0 
0 0 0 0 0 0 0 0 0 
0 0 0 0 0 0 0 0 0 
0 0 0 0 0 0 0 0 0 
0 0 0 0 0 0 0 0 0 
0 0 0 0 0 0 0 0 0 
0 0 0 0 0 0 0 0 0 
0 0 0 0 0 0 0 0 0 
0 0 0 0 0 0 0 0 0 
0 0 0 0 0 0 0 0 0 
0 0 0 0 0 0 0 0 0 
0 0 0 0 0 0 0 0 0 
0 0 0 0 0 0 0 0 0 
0 0 0 0 0 0 0 0 0 
0 0 0 0 0 0 0 0 0 
0 0 0 0 0 0 0 0 0 
0 0 0 0 0 0 0 0 0 
0 0 0 0 0 0 0 0 0 
0 0 0 0 0 0 0 0 0 
0 0 0 0 0 0 0 0 0 
0 0 0 0 0 0 0 0 0 
0 0 0 0 0 0 0 0 0 
0 0 0 0 0 0 0 0 0 
0 0 0 0 0 0 0 0 0 
0 0 0 0 0 0 0 0 0 
0 0 0 0 0 0 0 0 0 
0 0 0 0 0 0 0 0 0 
0 0 0 0 0 0 0 0 0 
0 0 0 0 0 0 0 0 0 
0 0 0 0 0 0 0 0 0 
0 0 0 0 0 0 0 0 0 
0 0 0 0 0 0 0 0 0 
0 0 0 0 0 0 0 0 0 
0 0 0 0 0 0 0 0 0 
0 0 0 0 0 0 0 0 0 
0 0 0 0 0 0 0 0 0 
0 0 0 0 0 0 0 0 0 
0 0 0 0 0 0 0 0 0 
0 0 0 0 0 0 0 0 0 
0 0 0 0 0 0 0 0 0 
0 0 0 0 0 0 0 0 0 
0 0 0 0 0 0 0 0 0 
0 0 0 0 0 0 0 0 0 
0 0 0 0 0 0 0 0 0 
0 0 0 0 0 0 0 0 0 
0 0 0 0 0 0 0 0 0 
0 0 0 0 0 0 0 0 0 
0 0 0 0 0 0 0 0 0 
0 0 0 0 0 0 0 0 0 
0 0 0 0 0 0 0 0 0 
0 0 0 0 0 0 0 0 0 
0 0 0 0 0 0 0 0 0 
0 0 0 0 0 0 0 0 0 
0 0 0 0 0 0 0 0 0 
0 0 0 0 0 0 0 0 0 
0 0 0 0 0 0 0 0 0 
0 0 0 0 0 0 0 0 0 
0 0 0 0 0 0 0 0 0 
0 0 0 0 0 0 0 0 0 
0 0 0 0 0 0 0 0 0 
0 0 0 0 0 0 0 0 0 
0 0 0 0 0 0 0 0 0 
0 0 0 0 0 0 0 0 0 
0 0 0 0 0 0 0 0 0 
0 0 0 0 0 0 0 0 0 
0 0 0 0 0 0 0 0 0 
0 0 0 0 0 0 0 0 0 
0 0 0 0 0 0 0 0 0 
0 0 0 0 0 0 0 0 0 
0 0 0 0 0 0 0 0 0 
0 0 0 0 0 0 0 0 0 
0 0 0 0 0 0 0 0 0 
0 0 0 0 0 0 0 0 0 
0 0 0 0 0 0 0 0 0 
0 0 0 0 0 0 0 0 0 
0 0 0 0 0 0 0 0 0 
0 0 0 0 0 0 0 0 0 
0 0 0 0 0 0 0 0 0 
0 0 0 0 0 0 0 0 0 
0 0 0 0 0 0 0 0 0 
0 0 0 0 0 0 0 0 0 
0 0 0 0 0 0 0 0 0 
0 0 0 0 0 0 0 0 0 
0 0 0 0 0 0 0 0 0 
0 0 0 0 0 0 0 0 0 
0 0 0 0 0 0 0 0 0 
0 0 0 0 0 0 0 0 0 
0 0 0 0 0 0 0 0 0 
0 0 0 0 0 0 0 0 0 
0 0 0 0 0 0 0 0 0 
0 0 0 0 0 0 0 0 0 
0 0 0 0 0 0 0 0 0 
0 0 0 0 0 0 0 0 0 
0 0 0 0 0 0 0 0 0 
0 0 0 0 0 0 0 0 0 
0 0 0 0 0 0 0 0 0 
0 0 0 0 0 0 0 0 0 
0 0 0 0 0 0 0 0 0 
0 0 0 0 0 0 0 0 0 
0 0 0 0 0 0 0 0 0 
0 0 0 0 0 0 0 0 0 
0 0 0 0 0 0 0 0 0 
0 0 0 0 0 0 0 0 0 
0 0 0 0 0 0 0 0 0 
0 0 0 0 0 0 0 0 0 
0 0 0 0 0 0 0 0 0 
0 0 0 0 0 0 0 0 0 
0 0 0 0 0 0 0 0 0 
0 0 0 0 0 0 0 0 0 
0 0 0 0 0 0 0 0 0 
0 0 0 0 0 0 0 0 0 
0 0 0 0 0 0 0 0 0 
0 0 0 0 0 0 0 0 0 
0 0 0 0 0 0 0 0 0 
0 0 0 0 0 0 0 0 0 
0 0 0 0 0 0 0 0 0 
0 0 0 0 0 0 0 0 0 
0 0 0 0 0 0 0 0 0 
0 0 0 0 0 0 0 0 0 
0 0 0 0 0 0 0 0 0 
0 0 0 0 0 0 0 0 0 
0 0 0 0 0 0 0 0 0 
0 0 0 0 0 0 0 0 0 
0 0 0 0 0 0 0 0 0 
0 0 0 0 0 0 0 0 0 
0 0 0 0 0 0 0 0 0 
0 0 0 0 0 0 0 0 0 
0 0 0 0 0 0 0 0 0 
0 0 0 0 0 0 0 0 0 
0 0 0 0 0 0 0 0 0 
0 0 0 0 0 0 0 0 0 
0 0 0 0 0 0 0 0 0 
0 0 0 0 0 0 0 0 0 
0 0 0 0 0 0 0 0 0 
0 0 0 0 0 0 0 0 0 
0 0 0 0 0 0 0 0 0 
0 0 0 0 0 0 0 0 0 
0 0 0 0 0 0 0 0 0 
0 0 0 0 0 0 0 0 0 
0 0 0 0 0 0 0 0 0 
0 0 0 0 0 0 0 0 0 
0 0 0 0 0 0 0 0 0 
0 0 0 0 0 0 0 0 0 
0 0 0 0 0 0 0 0 0 
0 0 0 0 0 0 0 0 0 
0 0 0 0 0 0 0 0 0 
0 0 0 0 0 0 0 0 0 
0 0 0 0 0 0 0 0 0 
0 0 0 0 0 0 0 0 0 
0 0 0 0 0 0 0 0 0 
0 0 0 0 0 0 0 0 0 
0 0 0 0 0 0 0 0 0 
0 0 0 0 0 0 0 0 0 
0 0 0 0 0 0 0 0 0 
0 0 0 0 0 0 0 0 0 
0 0 0 0 0 0 0 0 0 
0 0 0 0 0 0 0 0 0 
0 0 0 0 0 0 0 0 0 
0 0 0 0 0 0 0 0 0 
0 0 0 0 0 0 0 0 0 
0 0 0 0 0 0 0 0 0 
0 0 0 0 0 0 0 0 0 
0 0 0 0 0 0 0 0 0 
0 0 0 0 0 0 0 0 0 
0 0 0 0 0 0 0 0 0 
0 0 0 0 0 0 0 0 0 
0 0 0 0 0 0 0 0 0 
0 0 0 0 0 0 0 0 0 
0 0 0 0 0 0 0 0 0 
0 0 0 0 0 0 0 0 0 
0 0 0 0 0 0 0 0 0 
0 0 0 0 0 0 0 0 0 
0 0 0 0 0 0 0 0 0 
0 0 0 0 0 0 0 0 0 
0 0 0 0 0 0 0 0 0 
0 0 0 0 0 0 0 0 0 
0 0 0 0 0 0 0 0 0 
0 0 0 0 0 0 0 0 0 
0 0 0 0 0 0 0 0 0 
0 0 0 0 0 0 0 0 0 
0 0 0 0 0 0 0 0 0 
0 0 0 0 0 0 0 0 0 
0 0 0 0 0 0 0 0 0 
0 0 0 0 0 0 0 0 0 
0 0 0 0 0 0 0 0 0 
0 0 0 0 0 0 0 0 0 
0 0 0 0 0 0 0 0 0 
0 0 0 0 0 0 0 0 0 
0 0 0 0 0 0 0 0 0 
0 0 0 0 0 0 0 0 0 
0 0 0 0 0 0 0 0 0 
0 0 0 0 0 0 0 0 0 
0 0 0 0 0 0 0 0 0 
0 0 0 0 0 0 0 0 0 
0 0 0 0 0 0 0 0 0 
0 0 0 0 0 0 0 0 0 
0 0 0 0 0 0 0 0 0 
0 0 0 0 0 0 0 0 0 
0 0 0 0 0 0 0 0 0 
0 0 0 0 0 0 0 0 0 
0 0 0 0 0 0 0 0 0 
0 0 0 0 0 0 0 0 0 
0 0 0 0 0 0 0 0 0 
0 0 0 0 0 0 0 0 0 
0 0 0 0 0 0 0 0 0 
0 0 0 0 0 0 0 0 0 
0 0 0 0 0 0 0 0 0 
0 0 0 0 0 0 0 0 0 
0 0 0 0 0 0 0 0 0 
0 0 0 0 0 0 0 0 0 
0 0 0 0 0 0 0 0 0 
0 0 0 0 0 0 0 0 0 
0 0 0 0 0 0 0 0 0 
0 0 0 0 0 0 0 0 0 
0 0 0 0 0 0 0 0 0 
0 0 0 0 0 0 0 0 0 
0 0 0 0 0 0 0 0 0 
0 0 0 0 0 0 0 0 0 
0 0 0 0 0 0 0 0 0 
0 0 0 0 0 0 0 0 0 
0 0 0 0 0 0 0 0 0 
0 0 0 0 0 0 0 0 0 
0 0 0 0 0 0 0 0 0 
0 0 0 0 0 0 0 0 0 
0 0 0 0 0 0 0 0 0 
0 0 0 0 0 0 0 0 0 
0 0 0 0 0 0 0 0 0 
0 0 0 0 0 0 0 0 0 
0 0 0 0 0 0 0 0 0 
0 0 0 0 0 0 0 0 0 
0 0 0 0 0 0 0 0 0 
0 0 0 0 0 0 0 0 0 
0 0 0 0 0 0 0 0 0 
0 0 0 0 0 0 0 0 0 
0 0 0 0 0 0 0 0 0 
0 0 0 0 0 0 0 0 0 
0 0 0 0 0 0 0 0 0 
0 0 0 0 0 0 0 0 0 
0 0 0 0 0 0 0 0 0 
0 0 0 0 0 0 0 0 0 
0 0 0 0 0 0 0 0 0 
0 0 0 0 0 0 0 0 0 
0 0 0 0 0 0 0 0 0 
0 0 0 0 0 0 0 0 0 
0 0 0 0 0 0 0 0 0 
0 0 0 0 0 0 0 0 0 
0 0 0 0 0 0 0 0 0 
0 0 0 0 0 0 0 0 0 
0 0 0 0 0 0 0 0 0 
0 0 0 0 0 0 0 0 0 
0 0 0 0 0 0 0 0 0 
0 0 0 0 0 0 0 0 0 
0 0 0 0 0 0 0 0 0 
0 0 0 0 0 0 0 0 0 
0 0 0 0 0 0 0 0 0 
0 0 0 0 0 0 0 0 0 
0 0 0 0 0 0 0 0 0 
0 0 0 0 0 0 0 0 0 
0 0 0 0 0 0 0 0 0 
0 0 0 0 0 0 0 0 0 
0 0 0 0 0 0 0 0 0 
0 0 0 0 0 0 0 0 0 
0 0 0 0 0 0 0 0 0 
0 0 0 0 0 0 0 0 0 
0 0 0 0 0 0 0 0 0 
0 0 0 0 0 0 0 0 0 
0 0 0 0 0 0 0 0 0 
0 0 0 0 0 0 0 0 0 
0 0 0 0 0 0 0 0 0 
0 0 0 0 0 0 0 0 0 
0 0 0 0 0 0 0 0 0 
0 0 0 0 0 0 0 0 0 
0 0 0 0 0 0 0 0 0 
0 0 0 0 0 0 0 0 0 
0 0 0 0 0 0 0 0 0 
0 0 0 0 0 0 0 0 0 
0 0 0 0 0 0 0 0 0 
0 0 0 0 0 0 0 0 0 
0 0 0 0 0 0 0 0 0 
0 0 0 0 0 0 0 0 0 
0 0 0 0 0 0 0 0 0 
0 0 0 0 0 0 0 0 0 
0 0 0 0 0 0 0 0 0 
0 0 0 0 0 0 0 0 0 
0 0 0 0 0 0 0 0 0 
0 0 0 0 0 0 0 0 0 
0 0 0 0 0 0 0 0 0 
0 0 0 0 0 0 0 0 0 
0 0 0 0 0 0 0 0 0 
0 0 0 0 0 0 0 0 0 
0 0 0 0 0 0 0 0 0 
0 0 0 0 0 0 0 0 0 
0 0 0 0 0 0 0 0 0 
0 0 0 0 0 0 0 0 0 
0 0 0 0 0 0 0 0 0 
0 0 0 0 0 0 0 0 0 
0 0 0 0 0 0 0 0 0 
0 0 0 0 0 0 0 0 0 
0 0 0 0 0 0 0 0 0 
0 0 0 0 0 0 0 0 0 
0 0 0 0 0 0 0 0 0 
0 0 0 0 0 0 0 0 0 
0 0 0 0 0 0 0 0 0 
0 0 0 0 0 0 0 0 0 
0 0 0 0 0 0 0 0 0 
0 0 0 0 0 0 0 0 0 
0 0 0 0 0 0 0 0 0 
0 0 0 0 0 0 0 0 0 
0 0 0 0 0 0 0 0 0 
0 0 0 0 0 0 0 0 0 
0 0 0 0 0 0 0 0 0 
0 0 0 0 0 0 0 0 0 
0 0 0 0 0 0 0 0 0 
0 0 0 0 0 0 0 0 0 
0 0 0 0 0 0 0 0 0 
0 0 0 0 0 0 0 0 0 
0 0 0 0 0 0 0 0 0 
0 0 0 0 0 0 0 0 0 
0 0 0 0 0 0 0 0 0 
0 0 0 0 0 0 0 0 0 
0 0 0 0 0 0 0 0 0 
0 0 0 0 0 0 0 0 0 
0 0 0 0 0 0 0 0 0 
0 0 0 0 0 0 0 0 0 
0 0 0 0 0 0 0 0 0 
0 0 0 0 0 0 0 0 0 
0 0 0 0 0 0 0 0 0 
0 0 0 0 0 0 0 0 0 
0 0 0 0 0 0 0 0 0 
0 0 0 0 0 0 0 0 0 
0 0 0 0 0 0 0 0 0 
0 0 0 0 0 0 0 0 0 
0 0 0 0 0 0 0 0 0 
0 0 0 0 0 0 0 0 0 
0 0 0 0 0 0 0 0 0 
0 0 0 0 0 0 0 0 0 
0 0 0 0 0 0 0 0 0 
0 0 0 0 0 0 0 0 0 
0 0 0 0 0 0 0 0 0 
0 0 0 0 0 0 0 0 0 
0 0 0 0 0 0 0 0 0 
0 0 0 0 0 0 0 0 0 
0 0 0 0 0 0 0 0 0 
0 0 0 0 0 0 0 0 0 
0 0 0 0 0 0 0 0 0 
0 0 0 0 0 0 0 0 0 
0 0 0 0 0 0 0 0 0 
0 0 0 0 0 0 0 0 0 
0 0 0 0 0 0 0 0 0 
0 0 0 0 0 0 0 0 0 
0 0 0 0 0 0 0 0 0 
0 0 0 0 0 0 0 0 0 
0 0 0 0 0 0 0 0 0 
0 0 0 0 0 0 0 0 0 
0 0 0 0 0 0 0 0 0 
0 0 0 0 0 0 0 0 0 
0 0 0 0 0 0 0 0 0 
0 0 0 0 0 0 0 0 0 
0 0 0 0 0 0 0 0 0 
0 0 0 0 0 0 0 0 0 
0 0 0 0 0 0 0 0 0 
0 0 0 0 0 0 0 0 0 
0 0 0 0 0 0 0 0 0 
0 0 0 0 0 0 0 0 0 
0 0 0 0 0 0 0 0 0 
0 0 0 0 0 0 0 0 0 
0 0 0 0 0 0 0 0 0 
0 0 0 0 0 0 0 0 0 
0 0 0 0 0 0 0 0 0 
0 0 0 0 0 0 0 0 0 
0 0 0 0 0 0 0 0 0 
0 0 0 0 0 0 0 0 0 
0 0 0 0 0 0 0 0 0 
0 0 0 0 0 0 0 0 0 
0 0 0 0 0 0 0 0 0 
0 0 0 0 0 0 0 0 0 
0 0 0 0 0 0 0 0 0 
0 0 0 0 0 0 0 0 0 
0 0 0 0 0 0 0 0 0 
0 0 0 0 0 0 0 0 0 
0 0 0 0 0 0 0 0 0 
0 0 0 0 0 0 0 0 0 
0 0 0 0 0 0 0 0 0 
0 0 0 0 0 0 0 0 0 
0 0 0 0 0 0 0 0 0 
0 0 0 0 0 0 0 0 0 
0 0 0 0 0 0 0 0 0 
0 0 0 0 0 0 0 0 0 
0 0 0 0 0 0 0 0 0 
0 0 0 0 0 0 0 0 0 
0 0 0 0 0 0 0 0 0 
0 0 0 0 0 0 0 0 0 
0 0 0 0 0 0 0 0 0 
0 0 0 0 0 0 0 0 0 
0 0 0 0 0 0 0 0 0 
0 0 0 0 0 0 0 0 0 
0 0 0 0 0 0 0 0 0 
0 0 0 0 0 0 0 0 0 
0 0 0 0 0 0 0 0 0 
0 0 0 0 0 0 0 0 0 
0 0 0 0 0 0 0 0 0 
0 0 0 0 0 0 0 0 0 
0 0 0 0 0 0 0 0 0 
0 0 0 0 0 0 0 0 0 
0 0 0 0 0 0 0 0 0 
0 0 0 0 0 0 0 0 0 
0 0 0 0 0 0 0 0 0 
0 0 0 0 0 0 0 0 0 
0 0 0 0 0 0 0 0 0 
0 0 0 0 0 0 0 0 0 
0 0 0 0 0 0 0 0 0 
0 0 0 0 0 0 0 0 0 
0 0 0 0 0 0 0 0 0 
0 0 0 0 0 0 0 0 0 
0 0 0 0 0 0 0 0 0 
0 0 0 0 0 0 0 0 0 
0 0 0 0 0 0 0 0 0 
0 0 0 0 0 0 0 0 0 
0 0 0 0 0 0 0 0 0 
0 0 0 0 0 0 0 0 0 
0 0 0 0 0 0 0 0 0 
0 0 0 0 0 0 0 0 0 
0 0 0 0 0 0 0 0 0 
0 0 0 0 0 0 0 0 0 
0 0 0 0 0 0 0 0 0 
0 0 0 0 0 0 0 0 0 
0 0 0 0 0 0 0 0 0 
0 0 0 0 0 0 0 0 0 
0 0 0 0 0 0 0 0 0 
0 0 0 0 0 0 0 0 0 
0 0 0 0 0 0 0 0 0 
0 0 0 0 0 0 0 0 0 
0 0 0 0 0 0 0 0 0 
0 0 0 0 0 0 0 0 0 
0 0 0 0 0 0 0 0 0 
0 0 0 0 0 0 0 0 0 
0 0 0 0 0 0 0 0 0 
0 0 0 0 0 0 0 0 0 
0 0 0 0 0 0 0 0 0 
0 0 0 0 0 0 0 0 0 
0 0 0 0 0 0 0 0 0 
0 0 0 0 0 0 0 0 0 
0 0 0 0 0 0 0 0 0 
0 0 0 0 0 0 0 0 0 
0 0 0 0 0 0 0 0 0 
0 0 0 0 0 0 0 0 0 
0 0 0 0 0 0 0 0 0 
0 0 0 0 0 0 0 0 0 
0 0 0 0 0 0 0 0 0 
0 0 0 0 0 0 0 0 0 
0 0 0 0 0 0 0 0 0 
0 0 0 0 0 0 0 0 0 
0 0 0 0 0 0 0 0 0 
0 0 0 0 0 0 0 0 0 
0 0 0 0 0 0 0 0 0 
0 0 0 0 0 0 0 0 0 
0 0 0 0 0 0 0 0 0 
0 0 0 0 0 0 0 0 0 
0 0 0 0 0 0 0 0 0 
0 0 0 0 0 0 0 0 0 
0 0 0 0 0 0 0 0 0 
0 0 0 0 0 0 0 0 0 
0 0 0 0 0 0 0 0 0 
0 0 0 0 0 0 0 0 0 
0 0 0 0 0 0 0 0 0 
0 0 0 0 0 0 0 0 0 
0 0 0 0 0 0 0 0 0 
0 0 0 0 0 0 0 0 0 
0 0 0 0 0 0 0 0 0 
0 0 0 0 0 0 0 0 0 
0 0 0 0 0 0 0 0 0 
0 0 0 0 0 0 0 0 0 
0 0 0 0 0 0 0 0 0 
0 0 0 0 0 0 0 0 0 
0 0 0 0 0 0 0 0 0 
0 0 0 0 0 0 0 0 0 
0 0 0 0 0 0 0 0 0 
0 0 0 0 0 0 0 0 0 
0 0 0 0 0 0 0 0 0 
0 0 0 0 0 0 0 0 0 
0 0 0 0 0 0 0 0 0 
0 0 0 0 0 0 0 0 0 
0 0 0 0 0 0 0 0 0 
0 0 0 0 0 0 0 0 0 
0 0 0 0 0 0 0 0 0 
0 0 0 0 0 0 0 0 0 
0 0 0 0 0 0 0 0 0 
0 0 0 0 0 0 0 0 0 
0 0 0 0 0 0 0 0 0 
0 0 0 0 0 0 0 0 0 
0 0 0 0 0 0 0 0 0 
0 0 0 0 0 0 0 0 0 
0 0 0 0 0 0 0 0 0 
0 0 0 0 0 0 0 0 0 
0 0 0 0 0 0 0 0 0 
0 0 0 0 0 0 0 0 0 
0 0 0 0 0 0 0 0 0 
0 0 0 0 0 0 0 0 0 
0 0 0 0 0 0 0 0 0 
0 0 0 0 0 0 0 0 0 
0 0 0 0 0 0 0 0 0 
0 0 0 0 0 0 0 0 0 
0 0 0 0 0 0 0 0 0 
0 0 0 0 0 0 0 0 0 
0 0 0 0 0 0 0 0 0 
0 0 0 0 0 0 0 0 0 
0 0 0 0 0 0 0 0 0 
0 0 0 0 0 0 0 0 0 
0 0 0 0 0 0 0 0 0 
0 0 0 0 0 0 0 0 0 
0 0 0 0 0 0 0 0 0 
0 0 0 0 0 0 0 0 0 
0 0 0 0 0 0 0 0 0 
0 0 0 0 0 0 0 0 0 
0 0 0 0 0 0 0 0 0 
0 0 0 0 0 0 0 0 0 
0 0 0 0 0 0 0 0 0 
0 0 0 0 0 0 0 0 0 
0 0 0 0 0 0 0 0 0 
0 0 0 0 0 0 0 0 0 
0 0 0 0 0 0 0 0 0 
0 0 0 0 0 0 0 0 0 
0 0 0 0 0 0 0 0 0 
0 0 0 0 0 0 0 0 0 
0 0 0 0 0 0 0 0 0 
0 0 0 0 0 0 0 0 0 
0 0 0 0 0 0 0 0 0 
0 0 0 0 0 0 0 0 0 
0 0 0 0 0 0 0 0 0 
0 0 0 0 0 0 0 0 0 
0 0 0 0 0 0 0 0 0 
0 0 0 0 0 0 0 0 0 
0 0 0 0 0 0 0 0 0 
0 0 0 0 0 0 0 0 0 
0 0 0 0 0 0 0 0 0 
0 0 0 0 0 0 0 0 0 
0 0 0 0 0 0 0 0 0 
0 0 0 0 0 0 0 0 0 
0 0 0 0 0 0 0 0 0 
0 0 0 0 0 0 0 0 0 
0 0 0 0 0 0 0 0 0 
0 0 0 0 0 0 0 0 0 
0 0 0 0 0 0 0 0 0 
0 0 0 0 0 0 0 0 0 
0 0 0 0 0 0 0 0 0 
0 0 0 0 0 0 0 0 0 
0 0 0 0 0 0 0 0 0 
0 0 0 0 0 0 0 0 0 
0 0 0 0 0 0 0 0 0 
0 0 0 0 0 0 0 0 0 
0 0 0 0 0 0 0 0 0 
0 0 0 0 0 0 0 0 0 
0 0 0 0 0 0 0 0 0 
0 0 0 0 0 0 0 0 0 
0 0 0 0 0 0 0 0 0 
0 0 0 0 0 0 0 0 0 
0 0 0 0 0 0 0 0 0 
0 0 0 0 0 0 0 0 0 
0 0 0 0 0 0 0 0 0 
0 0 0 0 0 0 0 0 0 
0 0 0 0 0 0 0 0 0 
0 0 0 0 0 0 0 0 0 
0 0 0 0 0 0 0 0 0 
0 0 0 0 0 0 0 0 0 
0 0 0 0 0 0 0 0 0 
0 0 0 0 0 0 0 0 0 
0 0 0 0 0 0 0 0 0 
0 0 0 0 0 0 0 0 0 
0 0 0 0 0 0 0 0 0 
0 0 0 0 0 0 0 0 0 
0 0 0 0 0 0 0 0 0 
0 0 0 0 0 0 0 0 0 
0 0 0 0 0 0 0 0 0 
0 0 0 0 0 0 0 0 0 
0 0 0 0 0 0 0 0 0 
0 0 0 0 0 0 0 0 0 
0 0 0 0 0 0 0 0 0 
0 0 0 0 0 0 0 0 0 
0 0 0 0 0 0 0 0 0 
0 0 0 0 0 0 0 0 0 
0 0 0 0 0 0 0 0 0 
0 0 0 0 0 0 0 0 0 
0 0 0 0 0 0 0 0 0 
0 0 0 0 0 0 0 0 0 
0 0 0 0 0 0 0 0 0 
0 0 0 0 0 0 0 0 0 
0 0 0 0 0 0 0 0 0 
0 0 0 0 0 0 0 0 0 
0 0 0 0 0 0 0 0 0 
0 0 0 0 0 0 0 0 0 
0 0 0 0 0 0 0 0 0 
0 0 0 0 0 0 0 0 0 
0 0 0 0 0 0 0 0 0 
0 0 0 0 0 0 0 0 0 
0 0 0 0 0 0 0 0 0 
0 0 0 0 0 0 0 0 0 
0 0 0 0 0 0 0 0 0 
0 0 0 0 0 0 0 0 0 
0 0 0 0 0 0 0 0 0 
0 0 0 0 0 0 0 0 0 
0 0 0 0 0 0 0 0 0 
0 0 0 0 0 0 0 0 0 
0 0 0 0 0 0 0 0 0 
0 0 0 0 0 0 0 0 0 
0 0 0 0 0 0 0 0 0 
0 0 0 0 0 0 0 0 0 
0 0 0 0 0 0 0 0 0 
0 0 0 0 0 0 0 0 0 
0 0 0 0 0 0 0 0 0 
0 0 0 0 0 0 0 0 0 
0 0 0 0 0 0 0 0 0 
0 0 0 0 0 0 0 0 0 
0 0 0 0 0 0 0 0 0 
0 0 0 0 0 0 0 0 0 
0 0 0 0 0 0 0 0 0 
0 0 0 0 0 0 0 0 0 
0 0 0 0 0 0 0 0 0 
0 0 0 0 0 0 0 0 0 
0 0 0 0 0 0 0 0 0 
0 0 0 0 0 0 0 0 0 
0 0 0 0 0 0 0 0 0 
0 0 0 0 0 0 0 0 0 
0 0 0 0 0 0 0 0 0 
0 0 0 0 0 0 0 0 0 
0 0 0 0 0 0 0 0 0 
0 0 0 0 0 0 0 0 0 
0 0 0 0 0 0 0 0 0 
0 0 0 0 0 0 0 0 0 
0 0 0 0 0 0 0 0 0 
0 0 0 0 0 0 0 0 0 
0 0 0 0 0 0 0 0 0 
0 0 0 0 0 0 0 0 0 
0 0 0 0 0 0 0 0 0 
0 0 0 0 0 0 0 0 0 
0 0 0 0 0 0 0 0 0 
0 0 0 0 0 0 0 0 0 
0 0 0 0 0 0 0 0 0 
0 0 0 0 0 0 0 0 0 
0 0 0 0 0 0 0 0 0 
0 0 0 0 0 0 0 0 0 
0 0 0 0 0 0 0 0 0 
0 0 0 0 0 0 0 0 0 
0 0 0 0 0 0 0 0 0 
0 0 0 0 0 0 0 0 0 
0 0 0 0 0 0 0 0 0 
0 0 0 0 0 0 0 0 0 
0 0 0 0 0 0 0 0 0 
0 0 0 0 0 0 0 0 0 
0 0 0 0 0 0 0 0 0 
0 0 0 0 0 0 0 0 0 
0 0 0 0 0 0 0 0 0 
0 0 0 0 0 0 0 0 0 
0 0 0 0 0 0 0 0 0 
0 0 0 0 0 0 0 0 0 
0 0 0 0 0 0 0 0 0 
0 0 0 0 0 0 0 0 0 
0 0 0 0 0 0 0 0 0 
0 0 0 0 0 0 0 0 0 
0 0 0 0 0 0 0 0 0 
0 0 0 0 0 0 0 0 0 
0 0 0 0 0 0 0 0 0 
0 0 0 0 0 0 0 0 0 
0 0 0 0 0 0 0 0 0 
0 0 0 0 0 0 0 0 0 
0 0 0 0 0 0 0 0 0 
0 0 0 0 0 0 0 0 0 
0 0 0 0 0 0 0 0 0 
0 0 0 0 0 0 0 0 0 
0 0 0 0 0 0 0 0 0 
0 0 0 0 0 0 0 0 0 
0 0 0 0 0 0 0 0 0 
0 0 0 0 0 0 0 0 0 
0 0 0 0 0 0 0 0 0 
0 0 0 0 0 0 0 0 0 
0 0 0 0 0 0 0 0 0 
0 0 0 0 0 0 0 0 0 
0 0 0 0 0 0 0 0 0 
0 0 0 0 0 0 0 0 0 
0 0 0 0 0 0 0 0 0 
0 0 0 0 0 0 0 0 0 
0 0 0 0 0 0 0 0 0 
0 0 0 0 0 0 0 0 0 
0 0 0 0 0 0 0 0 0 
0 0 0 0 0 0 0 0 0 
0 0 0 0 0 0 0 0 0 
0 0 0 0 0 0 0 0 0 
0 0 0 0 0 0 0 0 0 
0 0 0 0 0 0 0 0 0 
0 0 0 0 0 0 0 0 0 
0 0 0 0 0 0 0 0 0 
0 0 0 0 0 0 0 0 0 
0 0 0 0 0 0 0 0 0 
0 0 0 0 0 0 0 0 0 
0 0 0 0 0 0 0 0 0 
0 0 0 0 0 0 0 0 0 
0 0 0 0 0 0 0 0 0 
0 0 0 0 0 0 0 0 0 
0 0 0 0 0 0 0 0 0 
0 0 0 0 0 0 0 0 0 
0 0 0 0 0 0 0 0 0 
0 0 0 0 0 0 0 0 0 
0 0 0 0 0 0 0 0 0 
0 0 0 0 0 0 0 0 0 
0 0 0 0 0 0 0 0 0 
0 0 0 0 0 0 0 0 0 
0 0 0 0 0 0 0 0 0 
0 0 0 0 0 0 0 0 0 
0 0 0 0 0 0 0 0 0 
0 0 0 0 0 0 0 0 0 
0 0 0 0 0 0 0 0 0 
0 0 0 0 0 0 0 0 0 
0 0 0 0 0 0 0 0 0 
0 0 0 0 0 0 0 0 0 
0 0 0 0 0 0 0 0 0 
0 0 0 0 0 0 0 0 0 
0 0 0 0 0 0 0 0 0 
0 0 0 0 0 0 0 0 0 
0 0 0 0 0 0 0 0 0 
0 0 0 0 0 0 0 0 0 
0 0 0 0 0 0 0 0 0 
0 0 0 0 0 0 0 0 0 
0 0 0 0 0 0 0 0 0 
0 0 0 0 0 0 0 0 0 
0 0 0 0 0 0 0 0 0 
0 0 0 0 0 0 0 0 0 
0 0 0 0 0 0 0 0 0 
0 0 0 0 0 0 0 0 0 
0 0 0 0 0 0 0 0 0 
0 0 0 0 0 0 0 0 0 
0 0 0 0 0 0 0 0 0 
0 0 0 0 0 0 0 0 0 
0 0 0 0 0 0 0 0 0 
0 0 0 0 0 0 0 0 0 
0 0 0 0 0 0 0 0 0 
0 0 0 0 0 0 0 0 0 
0 0 0 0 0 0 0 0 0 
0 0 0 0 0 0 0 0 0 
0 0 0 0 0 0 0 0 0 
0 0 0 0 0 0 0 0 0 
0 0 0 0 0 0 0 0 0 
0 0 0 0 0 0 0 0 0 
0 0 0 0 0 0 0 0 0 
0 0 0 0 0 0 0 0 0 
0 0 0 0 0 0 0 0 0 
0 0 0 0 0 0 0 0 0 
0 0 0 0 0 0 0 0 0 
0 0 0 0 0 0 0 0 0 
0 0 0 0 0 0 0 0 0 
0 0 0 0 0 0 0 0 0 
0 0 0 0 0 0 0 0 0 
0 0 0 0 0 0 0 0 0 
0 0 0 0 0 0 0 0 0 
0 0 0 0 0 0 0 0 0 
0 0 0 0 0 0 0 0 0 
0 0 0 0 0 0 0 0 0 
0 0 0 0 0 0 0 0 0 
0 0 0 0 0 0 0 0 0 
0 0 0 0 0 0 0 0 0 
0 0 0 0 0 0 0 0 0 
0 0 0 0 0 0 0 0 0 
0 0 0 0 0 0 0 0 0 
0 0 0 0 0 0 0 0 0 
0 0 0 0 0 0 0 0 0 
0 0 0 0 0 0 0 0 0 
0 0 0 0 0 0 0 0 0 
0 0 0 0 0 0 0 0 0 
0 0 0 0 0 0 0 0 0 
0 0 0 0 0 0 0 0 0 
0 0 0 0 0 0 0 0 0 
0 0 0 0 0 0 0 0 0 
0 0 0 0 0 0 0 0 0 
0 0 0 0 0 0 0 0 0 
0 0 0 0 0 0 0 0 0 
0 0 0 0 0 0 0 0 0 
0 0 0 0 0 0 0 0 0 
0 0 0 0 0 0 0 0 0 
0 0 0 0 0 0 0 0 0 
0 0 0 0 0 0 0 0 0 
0 0 0 0 0 0 0 0 0 
0 0 0 0 0 0 0 0 0 
0 0 0 0 0 0 0 0 0 
0 0 0 0 0 0 0 0 0 
0 0 0 0 0 0 0 0 0 
0 0 0 0 0 0 0 0 0 
0 0 0 0 0 0 0 0 0 
0 0 0 0 0 0 0 0 0 
0 0 0 0 0 0 0 0 0 
0 0 0 0 0 0 0 0 0 
0 0 0 0 0 0 0 0 0 
0 0 0 0 0 0 0 0 0 
0 0 0 0 0 0 0 0 0 
0 0 0 0 0 0 0 0 0 
0 0 0 0 0 0 0 0 0 
0 0 0 0 0 0 0 0 0 
0 0 0 0 0 0 0 0 0 
0 0 0 0 0 0 0 0 0 
0 0 0 0 0 0 0 0 0 
0 0 0 0 0 0 0 0 0 
0 0 0 0 0 0 0 0 0 
0 0 0 0 0 0 0 0 0 
0 0 0 0 0 0 0 0 0 
0 0 0 0 0 0 0 0 0 
0 0 0 0 0 0 0 0 0 
0 0 0 0 0 0 0 0 0 
0 0 0 0 0 0 0 0 0 
0 0 0 0 0 0 0 0 0 
0 0 0 0 0 0 0 0 0 
0 0 0 0 0 0 0 0 0 
0 0 0 0 0 0 0 0 0 
0 0 0 0 0 0 0 0 0 
0 0 0 0 0 0 0 0 0 
0 0 0 0 0 0 0 0 0 
0 0 0 0 0 0 0 0 0 
0 0 0 0 0 0 0 0 0 
0 0 0 0 0 0 0 0 0 
0 0 0 0 0 0 0 0 0 
0 0 0 0 0 0 0 0 0 
0 0 0 0 0 0 0 0 0 
0 0 0 0 0 0 0 0 0 
0 0 0 0 0 0 0 0 0 
0 0 0 0 0 0 0 0 0 
0 0 0 0 0 0 0 0 0 
0 0 0 0 0 0 0 0 0 
0 0 0 0 0 0 0 0 0 
0 0 0 0 0 0 0 0 0 
0 0 0 0 0 0 0 0 0 
0 0 0 0 0 0 0 0 0 
0 0 0 0 0 0 0 0 0 
0 0 0 0 0 0 0 0 0 
0 0 0 0 0 0 0 0 0 
0 0 0 0 0 0 0 0 0 
0 0 0 0 0 0 0 0 0 
0 0 0 0 0 0 0 0 0 
0 0 0 0 0 0 0 0 0 
0 0 0 0 0 0 0 0 0 
0 0 0 0 0 0 0 0 0 
0 0 0 0 0 0 0 0 0 
0 0 0 0 0 0 0 0 0 
0 0 0 0 0 0 0 0 0 
0 0 0 0 0 0 0 0 0 
0 0 0 0 0 0 0 0 0 
0 0 0 0 0 0 0 0 0 
0 0 0 0 0 0 0 0 0 
0 0 0 0 0 0 0 0 0 
0 0 0 0 0 0 0 0 0 
0 0 0 0 0 0 0 0 0 
0 0 0 0 0 0 0 0 0 
0 0 0 0 0 0 0 0 0 
0 0 0 0 0 0 0 0 0 
0 0 0 0 0 0 0 0 0 
0 0 0 0 0 0 0 0 0 
0 0 0 0 0 0 0 0 0 
0 0 0 0 0 0 0 0 0 
0 0 0 0 0 0 0 0 0 
0 0 0 0 0 0 0 0 0 
0 0 0 0 0 0 0 0 0 
0 0 0 0 0 0 0 0 0 
0 0 0 0 0 0 0 0 0 
0 0 0 0 0 0 0 0 0 
0 0 0 0 0 0 0 0 0 
0 0 0 0 0 0 0 0 0 
0 0 0 0 0 0 0 0 0 
0 0 0 0 0 0 0 0 0 
0 0 0 0 0 0 0 0 0 
0 0 0 0 0 0 0 0 0 
0 0 0 0 0 0 0 0 0 
0 0 0 0 0 0 0 0 0 
0 0 0 0 0 0 0 0 0 
0 0 0 0 0 0 0 0 0 
0 0 0 0 0 0 0 0 0 
0 0 0 0 0 0 0 0 0 
0 0 0 0 0 0 0 0 0 
0 0 0 0 0 0 0 0 0 
0 0 0 0 0 0 0 0 0 
0 0 0 0 0 0 0 0 0 
0 0 0 0 0 0 0 0 0 
0 0 0 0 0 0 0 0 0 
0 0 0 0 0 0 0 0 0 
0 0 0 0 0 0 0 0 0 
0 0 0 0 0 0 0 0 0 
0 0 0 0 0 0 0 0 0 
0 0 0 0 0 0 0 0 0 
0 0 0 0 0 0 0 0 0 
0 0 0 0 0 0 0 0 0 
0 0 0 0 0 0 0 0 0 
0 0 0 0 0 0 0 0 0 
0 0 0 0 0 0 0 0 0 
0 0 0 0 0 0 0 0 0 
0 0 0 0 0 0 0 0 0 
0 0 0 0 0 0 0 0 0 
0 0 0 0 0 0 0 0 0 
0 0 0 0 0 0 0 0 0 
0 0 0 0 0 0 0 0 0 
0 0 0 0 0 0 0 0 0 
0 0 0 0 0 0 0 0 0 
0 0 0 0 0 0 0 0 0 
0 0 0 0 0 0 0 0 0 
0 0 0 0 0 0 0 0 0 
0 0 0 0 0 0 0 0 0 
0 0 0 0 0 0 0 0 0 
0 0 0 0 0 0 0 0 0 
0 0 0 0 0 0 0 0 0 
0 0 0 0 0 0 0 0 0 
0 0 0 0 0 0 0 0 0 
0 0 0 0 0 0 0 0 0 
0 0 0 0 0 0 0 0 0 
0 0 0 0 0 0 0 0 0 
0 0 0 0 0 0 0 0 0 
0 0 0 0 0 0 0 0 0 
0 0 0 0 0 0 0 0 0 
0 0 0 0 0 0 0 0 0 
0 0 0 0 0 0 0 0 0 
0 0 0 0 0 0 0 0 0 
0 0 0 0 0 0 0 0 0 
0 0 0 0 0 0 0 0 0 
0 0 0 0 0 0 0 0 0 
0 0 0 0 0 0 0 0 0 
0 0 0 0 0 0 0 0 0 
0 0 0 0 0 0 0 0 0 
0 0 0 0 0 0 0 0 0 
0 0 0 0 0 0 0 0 0 
0 0 0 0 0 0 0 0 0 
0 0 0 0 0 0 0 0 0 
0 0 0 0 0 0 0 0 0 
0 0 0 0 0 0 0 0 0 
0 0 0 0 0 0 0 0 0 
0 0 0 0 0 0 0 0 0 
0 0 0 0 0 0 0 0 0 
0 0 0 0 0 0 0 0 0 
0 0 0 0 0 0 0 0 0 
0 0 0 0 0 0 0 0 0 
0 0 0 0 0 0 0 0 0 
0 0 0 0 0 0 0 0 0 
0 0 0 0 0 0 0 0 0 
0 0 0 0 0 0 0 0 0 
0 0 0 0 0 0 0 0 0 
0 0 0 0 0 0 0 0 0 
0 0 0 0 0 0 0 0 0 
0 0 0 0 0 0 0 0 0 
0 0 0 0 0 0 0 0 0 
0 0 0 0 0 0 0 0 0 
0 0 0 0 0 0 0 0 0 
0 0 0 0 0 0 0 0 0 
0 0 0 0 0 0 0 0 0 
0 0 0 0 0 0 0 0 0 
0 0 0 0 0 0 0 0 0 
0 0 0 0 0 0 0 0 0 
0 0 0 0 0 0 0 0 0 
0 0 0 0 0 0 0 0 0 
0 0 0 0 0 0 0 0 0 
0 0 0 0 0 0 0 0 0 
0 0 0 0 0 0 0 0 0 
0 0 0 0 0 0 0 0 0 
0 0 0 0 0 0 0 0 0 
0 0 0 0 0 0 0 0 0 
0 0 0 0 0 0 0 0 0 
0 0 0 0 0 0 0 0 0 
0 0 0 0 0 0 0 0 0 
0 0 0 0 0 0 0 0 0 
0 0 0 0 0 0 0 0 0 
0 0 0 0 0 0 0 0 0 
0 0 0 0 0 0 0 0 0 
0 0 0 0 0 0 0 0 0 
0 0 0 0 0 0 0 0 0 
0 0 0 0 0 0 0 0 0 
0 0 0 0 0 0 0 0 0 
0 0 0 0 0 0 0 0 0 
0 0 0 0 0 0 0 0 0 
0 0 0 0 0 0 0 0 0 
0 0 0 0 0 0 0 0 0 
0 0 0 0 0 0 0 0 0 
0 0 0 0 0 0 0 0 0 
0 0 0 0 0 0 0 0 0 
0 0 0 0 0 0 0 0 0 
0 0 0 0 0 0 0 0 0 
0 0 0 0 0 0 0 0 0 
0 0 0 0 0 0 0 0 0 
0 0 0 0 0 0 0 0 0 
0 0 0 0 0 0 0 0 0 
0 0 0 0 0 0 0 0 0 
0 0 0 0 0 0 0 0 0 
0 0 0 0 0 0 0 0 0 
0 0 0 0 0 0 0 0 0 
0 0 0 0 0 0 0 0 0 
0 0 0 0 0 0 0 0 0 
0 0 0 0 0 0 0 0 0 
0 0 0 0 0 0 0 0 0 
0 0 0 0 0 0 0 0 0 
0 0 0 0 0 0 0 0 0 
0 0 0 0 0 0 0 0 0 
0 0 0 0 0 0 0 0 0 
0 0 0 0 0 0 0 0 0 
0 0 0 0 0 0 0 0 0 
0 0 0 0 0 0 0 0 0 
0 0 0 0 0 0 0 0 0 
0 0 0 0 0 0 0 0 0 
0 0 0 0 0 0 0 0 0 
0 0 0 0 0 0 0 0 0 
0 0 0 0 0 0 0 0 0 
0 0 0 0 0 0 0 0 0 
0 0 0 0 0 0 0 0 0 
0 0 0 0 0 0 0 0 0 
0 0 0 0 0 0 0 0 0 
0 0 0 0 0 0 0 0 0 
0 0 0 0 0 0 0 0 0 
0 0 0 0 0 0 0 0 0 
0 0 0 0 0 0 0 0 0 
0 0 0 0 0 0 0 0 0 
0 0 0 0 0 0 0 0 0 
0 0 0 0 0 0 0 0 0 
0 0 0 0 0 0 0 0 0 
0 0 0 0 0 0 0 0 0 
0 0 0 0 0 0 0 0 0 
0 0 0 0 0 0 0 0 0 
0 0 0 0 0 0 0 0 0 
0 0 0 0 0 0 0 0 0 
0 0 0 0 0 0 0 0 0 
0 0 0 0 0 0 0 0 0 
0 0 0 0 0 0 0 0 0 
0 0 0 0 0 0 0 0 0 
0 0 0 0 0 0 0 0 0 
0 0 0 0 0 0 0 0 0 
0 0 0 0 0 0 0 0 0 
0 0 0 0 0 0 0 0 0 
0 0 0 0 0 0 0 0 0 
0 0 0 0 0 0 0 0 0 
0 0 0 0 0 0 0 0 0 
0 0 0 0 0 0 0 0 0 
0 0 0 0 0 0 0 0 0 
0 0 0 0 0 0 0 0 0 
0 0 0 0 0 0 0 0 0 
0 0 0 0 0 0 0 0 0 
0 0 0 0 0 0 0 0 0 
0 0 0 0 0 0 0 0 0 
0 0 0 0 0 0 0 0 0 
0 0 0 0 0 0 0 0 0 
0 0 0 0 0 0 0 0 0 
0 0 0 0 0 0 0 0 0 
0 0 0 0 0 0 0 0 0 
0 0 0 0 0 0 0 0 0 
0 0 0 0 0 0 0 0 0 
0 0 0 0 0 0 0 0 0 
0 0 0 0 0 0 0 0 0 
0 0 0 0 0 0 0 0 0 
0 0 0 0 0 0 0 0 0 
0 0 0 0 0 0 0 0 0 
0 0 0 0 0 0 0 0 0 
0 0 0 0 0 0 0 0 0 
0 0 0 0 0 0 0 0 0 
0 0 0 0 0 0 0 0 0 
0 0 0 0 0 0 0 0 0 
0 0 0 0 0 0 0 0 0 
0 0 0 0 0 0 0 0 0 
0 0 0 0 0 0 0 0 0 
0 0 0 0 0 0 0 0 0 
0 0 0 0 0 0 0 0 0 
0 0 0 0 0 0 0 0 0 
0 0 0 0 0 0 0 0 0 
0 0 0 0 0 0 0 0 0 
0 0 0 0 0 0 0 0 0 
0 0 0 0 0 0 0 0 0 
0 0 0 0 0 0 0 0 0 
0 0 0 0 0 0 0 0 0 
0 0 0 0 0 0 0 0 0 
0 0 0 0 0 0 0 0 0 
0 0 0 0 0 0 0 0 0 
0 0 0 0 0 0 0 0 0 
0 0 0 0 0 0 0 0 0 
0 0 0 0 0 0 0 0 0 
0 0 0 0 0 0 0 0 0 
0 0 0 0 0 0 0 0 0 
0 0 0 0 0 0 0 0 0 
0 0 0 0 0 0 0 0 0 
0 0 0 0 0 0 0 0 0 
0 0 0 0 0 0 0 0 0 
0 0 0 0 0 0 0 0 0 
0 0 0 0 0 0 0 0 0 
0 0 0 0 0 0 0 0 0 
0 0 0 0 0 0 0 0 0 
0 0 0 0 0 0 0 0 0 
0 0 0 0 0 0 0 0 0 
0 0 0 0 0 0 0 0 0 
0 0 0 0 0 0 0 0 0 
0 0 0 0 0 0 0 0 0 
0 0 0 0 0 0 0 0 0 
0 0 0 0 0 0 0 0 0 
0 0 0 0 0 0 0 0 0 
0 0 0 0 0 0 0 0 0 
0 0 0 0 0 0 0 0 0 
0 0 0 0 0 0 0 0 0 
0 0 0 0 0 0 0 0 0 
0 0 0 0 0 0 0 0 0 
0 0 0 0 0 0 0 0 0 
0 0 0 0 0 0 0 0 0 
0 0 0 0 0 0 0 0 0 
0 0 0 0 0 0 0 0 0 
0 0 0 0 0 0 0 0 0 
0 0 0 0 0 0 0 0 0 
0 0 0 0 0 0 0 0 0 
0 0 0 0 0 0 0 0 0 
0 0 0 0 0 0 0 0 0 
0 0 0 0 0 0 0 0 0 
0 0 0 0 0 0 0 0 0 
0 0 0 0 0 0 0 0 0 
0 0 0 0 0 0 0 0 0 
0 0 0 0 0 0 0 0 0 
0 0 0 0 0 0 0 0 0 
0 0 0 0 0 0 0 0 0 
0 0 0 0 0 0 0 0 0 
0 0 0 0 0 0 0 0 0 
0 0 0 0 0 0 0 0 0 
0 0 0 0 0 0 0 0 0 
0 0 0 0 0 0 0 0 0 
0 0 0 0 0 0 0 0 0 
0 0 0 0 0 0 0 0 0 
0 0 0 0 0 0 0 0 0 
0 0 0 0 0 0 0 0 0 
0 0 0 0 0 0 0 0 0 
0 0 0 0 0 0 0 0 0 
0 0 0 0 0 0 0 0 0 
0 0 0 0 0 0 0 0 0 
0 0 0 0 0 0 0 0 0 
0 0 0 0 0 0 0 0 0 
0 0 0 0 0 0 0 0 0 
0 0 0 0 0 0 0 0 0 
0 0 0 0 0 0 0 0 0 
0 0 0 0 0 0 0 0 0 
0 0 0 0 0 0 0 0 0 
0 0 0 0 0 0 0 0 0 
0 0 0 0 0 0 0 0 0 
0 0 0 0 0 0 0 0 0 
0 0 0 0 0 0 0 0 0 
0 0 0 0 0 0 0 0 0 
0 0 0 0 0 0 0 0 0 
0 0 0 0 0 0 0 0 0 
0 0 0 0 0 0 0 0 0 
0 0 0 0 0 0 0 0 0 
0 0 0 0 0 0 0 0 0 
0 0 0 0 0 0 0 0 0 
0 0 0 0 0 0 0 0 0 
0 0 0 0 0 0 0 0 0 
0 0 0 0 0 0 0 0 0 
0 0 0 0 0 0 0 0 0 
0 0 0 0 0 0 0 0 0 
0 0 0 0 0 0 0 0 0 
0 0 0 0 0 0 0 0 0 
0 0 0 0 0 0 0 0 0 
0 0 0 0 0 0 0 0 0 
0 0 0 0 0 0 0 0 0 
0 0 0 0 0 0 0 0 0 
0 0 0 0 0 0 0 0 0 
0 0 0 0 0 0 0 0 0 
0 0 0 0 0 0 0 0 0 
0 0 0 0 0 0 0 0 0 
0 0 0 0 0 0 0 0 0 
0 0 0 0 0 0 0 0 0 
0 0 0 0 0 0 0 0 0 
0 0 0 0 0 0 0 0 0 
0 0 0 0 0 0 0 0 0 
0 0 0 0 0 0 0 0 0 
0 0 0 0 0 0 0 0 0 
0 0 0 0 0 0 0 0 0 
0 0 0 0 0 0 0 0 0 
0 0 0 0 0 0 0 0 0 
0 0 0 0 0 0 0 0 0 
0 0 0 0 0 0 0 0 0 
0 0 0 0 0 0 0 0 0 
0 0 0 0 0 0 0 0 0 
0 0 0 0 0 0 0 0 0 
0 0 0 0 0 0 0 0 0 
0 0 0 0 0 0 0 0 0 
0 0 0 0 0 0 0 0 0 
0 0 0 0 0 0 0 0 0 
0 0 0 0 0 0 0 0 0 
0 0 0 0 0 0 0 0 0 
0 0 0 0 0 0 0 0 0 
0 0 0 0 0 0 0 0 0 
0 0 0 0 0 0 0 0 0 
0 0 0 0 0 0 0 0 0 
0 0 0 0 0 0 0 0 0 
0 0 0 0 0 0 0 0 0 
0 0 0 0 0 0 0 0 0 
0 0 0 0 0 0 0 0 0 
0 0 0 0 0 0 0 0 0 
0 0 0 0 0 0 0 0 0 
0 0 0 0 0 0 0 0 0 
0 0 0 0 0 0 0 0 0 
0 0 0 0 0 0 0 0 0 
0 0 0 0 0 0 0 0 0 
0 0 0 0 0 0 0 0 0 
0 0 0 0 0 0 0 0 0 
0 0 0 0 0 0 0 0 0 
0 0 0 0 0 0 0 0 0 
0 0 0 0 0 0 0 0 0 
0 0 0 0 0 0 0 0 0 
0 0 0 0 0 0 0 0 0 
0 0 0 0 0 0 0 0 0 
0 0 0 0 0 0 0 0 0 
0 0 0 0 0 0 0 0 0 
0 0 0 0 0 0 0 0 0 
0 0 0 0 0 0 0 0 0 
0 0 0 0 0 0 0 0 0 
0 0 0 0 0 0 0 0 0 
0 0 0 0 0 0 0 0 0 
0 0 0 0 0 0 0 0 0 
0 0 0 0 0 0 0 0 0 
0 0 0 0 0 0 0 0 0 
0 0 0 0 0 0 0 0 0 
0 0 0 0 0 0 0 0 0 
0 0 0 0 0 0 0 0 0 
0 0 0 0 0 0 0 0 0 
0 0 0 0 0 0 0 0 0 
0 0 0 0 0 0 0 0 0 
0 0 0 0 0 0 0 0 0 
0 0 0 0 0 0 0 0 0 
0 0 0 0 0 0 0 0 0 
0 0 0 0 0 0 0 0 0 
0 0 0 0 0 0 0 0 0 
0 0 0 0 0 0 0 0 0 
0 0 0 0 0 0 0 0 0 
0 0 0 0 0 0 0 0 0 
0 0 0 0 0 0 0 0 0 
0 0 0 0 0 0 0 0 0 
0 0 0 0 0 0 0 0 0 
0 0 0 0 0 0 0 0 0 
0 0 0 0 0 0 0 0 0 
0 0 0 0 0 0 0 0 0 
0 0 0 0 0 0 0 0 0 
0 0 0 0 0 0 0 0 0 
0 0 0 0 0 0 0 0 0 
0 0 0 0 0 0 0 0 0 
0 0 0 0 0 0 0 0 0 
0 0 0 0 0 0 0 0 0 
0 0 0 0 0 0 0 0 0 
0 0 0 0 0 0 0 0 0 
0 0 0 0 0 0 0 0 0 
0 0 0 0 0 0 0 0 0 
0 0 0 0 0 0 0 0 0 
0 0 0 0 0 0 0 0 0 
0 0 0 0 0 0 0 0 0 
0 0 0 0 0 0 0 0 0 
0 0 0 0 0 0 0 0 0 
0 0 0 0 0 0 0 0 0 
0 0 0 0 0 0 0 0 0 
0 0 0 0 0 0 0 0 0 
0 0 0 0 0 0 0 0 0 
0 0 0 0 0 0 0 0 0 
0 0 0 0 0 0 0 0 0 
0 0 0 0 0 0 0 0 0 
0 0 0 0 0 0 0 0 0 
0 0 0 0 0 0 0 0 0 
0 0 0 0 0 0 0 0 0 
0 0 0 0 0 0 0 0 0 
0 0 0 0 0 0 0 0 0 
0 0 0 0 0 0 0 0 0 
0 0 0 0 0 0 0 0 0 
0 0 0 0 0 0 0 0 0 
0 0 0 0 0 0 0 0 0 
0 0 0 0 0 0 0 0 0 
0 0 0 0 0 0 0 0 0 
0 0 0 0 0 0 0 0 0 
0 0 0 0 0 0 0 0 0 
0 0 0 0 0 0 0 0 0 
0 0 0 0 0 0 0 0 0 
0 0 0 0 0 0 0 0 0 
0 0 0 0 0 0 0 0 0 
0 0 0 0 0 0 0 0 0 
0 0 0 0 0 0 0 0 0 
0 0 0 0 0 0 0 0 0 
0 0 0 0 0 0 0 0 0 
0 0 0 0 0 0 0 0 0 
0 0 0 0 0 0 0 0 0 
0 0 0 0 0 0 0 0 0 
0 0 0 0 0 0 0 0 0 
0 0 0 0 0 0 0 0 0 
0 0 0 0 0 0 0 0 0 
0 0 0 0 0 0 0 0 0 
0 0 0 0 0 0 0 0 0 
0 0 0 0 0 0 0 0 0 
0 0 0 0 0 0 0 0 0 
0 0 0 0 0 0 0 0 0 
0 0 0 0 0 0 0 0 0 
0 0 0 0 0 0 0 0 0 
0 0 0 0 0 0 0 0 0 
0 0 0 0 0 0 0 0 0 
0 0 0 0 0 0 0 0 0 
0 0 0 0 0 0 0 0 0 
0 0 0 0 0 0 0 0 0 
0 0 0 0 0 0 0 0 0 
0 0 0 0 0 0 0 0 0 
0 0 0 0 0 0 0 0 0 
0 0 0 0 0 0 0 0 0 
0 0 0 0 0 0 0 0 0 
0 0 0 0 0 0 0 0 0 
0 0 0 0 0 0 0 0 0 
0 0 0 0 0 0 0 0 0 
0 0 0 0 0 0 0 0 0 
0 0 0 0 0 0 0 0 0 
0 0 0 0 0 0 0 0 0 
0 0 0 0 0 0 0 0 0 
0 0 0 0 0 0 0 0 0 
0 0 0 0 0 0 0 0 0 
0 0 0 0 0 0 0 0 0 
0 0 0 0 0 0 0 0 0 
0 0 0 0 0 0 0 0 0 
0 0 0 0 0 0 0 0 0 
0 0 0 0 0 0 0 0 0 
0 0 0 0 0 0 0 0 0 
0 0 0 0 0 0 0 0 0 
0 0 0 0 0 0 0 0 0 
0 0 0 0 0 0 0 0 0 
0 0 0 0 0 0 0 0 0 
0 0 0 0 0 0 0 0 0 
0 0 0 0 0 0 0 0 0 
0 0 0 0 0 0 0 0 0 
0 0 0 0 0 0 0 0 0 
0 0 0 0 0 0 0 0 0 
0 0 0 0 0 0 0 0 0 
0 0 0 0 0 0 0 0 0 
0 0 0 0 0 0 0 0 0 
0 0 0 0 0 0 0 0 0 
0 0 0 0 0 0 0 0 0 
0 0 0 0 0 0 0 0 0 
0 0 0 0 0 0 0 0 0 
0 0 0 0 0 0 0 0 0 
0 0 0 0 0 0 0 0 0 
0 0 0 0 0 0 0 0 0 
0 0 0 0 0 0 0 0 0 
0 0 0 0 0 0 0 0 0 
0 0 0 0 0 0 0 0 0 
0 0 0 0 0 0 0 0 0 
0 0 0 0 0 0 0 0 0 
0 0 0 0 0 0 0 0 0 
0 0 0 0 0 0 0 0 0 
0 0 0 0 0 0 0 0 0 
0 0 0 0 0 0 0 0 0 
0 0 0 0 0 0 0 0 0 
0 0 0 0 0 0 0 0 0 
0 0 0 0 0 0 0 0 0 
0 0 0 0 0 0 0 0 0 
0 0 0 0 0 0 0 0 0 
0 0 0 0 0 0 0 0 0 
0 0 0 0 0 0 0 0 0 
0 0 0 0 0 0 0 0 0 
0 0 0 0 0 0 0 0 0 
0 0 0 0 0 0 0 0 0 
0 0 0 0 0 0 0 0 0 
0 0 0 0 0 0 0 0 0 
0 0 0 0 0 0 0 0 0 
0 0 0 0 0 0 0 0 0 
0 0 0 0 0 0 0 0 0 
0 0 0 0 0 0 0 0 0 
0 0 0 0 0 0 0 0 0 
0 0 0 0 0 0 0 0 0 
0 0 0 0 0 0 0 0 0 
0 0 0 0 0 0 0 0 0 
0 0 0 0 0 0 0 0 0 
0 0 0 0 0 0 0 0 0 
0 0 0 0 0 0 0 0 0 
0 0 0 0 0 0 0 0 0 
0 0 0 0 0 0 0 0 0 
0 0 0 0 0 0 0 0 0 
0 0 0 0 0 0 0 0 0 
0 0 0 0 0 0 0 0 0 
0 0 0 0 0 0 0 0 0 
0 0 0 0 0 0 0 0 0 
0 0 0 0 0 0 0 0 0 
0 0 0 0 0 0 0 0 0 
0 0 0 0 0 0 0 0 0 
0 0 0 0 0 0 0 0 0 
0 0 0 0 0 0 0 0 0 
0 0 0 0 0 0 0 0 0 
0 0 0 0 0 0 0 0 0 
0 0 0 0 0 0 0 0 0 
0 0 0 0 0 0 0 0 0 
0 0 0 0 0 0 0 0 0 
0 0 0 0 0 0 0 0 0 
0 0 0 0 0 0 0 0 0 
0 0 0 0 0 0 0 0 0 
0 0 0 0 0 0 0 0 0 
0 0 0 0 0 0 0 0 0 
0 0 0 0 0 0 0 0 0 
0 0 0 0 0 0 0 0 0 
0 0 0 0 0 0 0 0 0 
0 0 0 0 0 0 0 0 0 
0 0 0 0 0 0 0 0 0 
0 0 0 0 0 0 0 0 0 
0 0 0 0 0 0 0 0 0 
0 0 0 0 0 0 0 0 0 
0 0 0 0 0 0 0 0 0 
0 0 0 0 0 0 0 0 0 
0 0 0 0 0 0 0 0 0 
0 0 0 0 0 0 0 0 0 
0 0 0 0 0 0 0 0 0 
0 0 0 0 0 0 0 0 0 
0 0 0 0 0 0 0 0 0 
0 0 0 0 0 0 0 0 0 
0 0 0 0 0 0 0 0 0 
0 0 0 0 0 0 0 0 0 
0 0 0 0 0 0 0 0 0 
0 0 0 0 0 0 0 0 0 
0 0 0 0 0 0 0 0 0 
0 0 0 0 0 0 0 0 0 
0 0 0 0 0 0 0 0 0 
0 0 0 0 0 0 0 0 0 
0 0 0 0 0 0 0 0 0 
0 0 0 0 0 0 0 0 0 
0 0 0 0 0 0 0 0 0 
0 0 0 0 0 0 0 0 0 
0 0 0 0 0 0 0 0 0 
0 0 0 0 0 0 0 0 0 
0 0 0 0 0 0 0 0 0 
0 0 0 0 0 0 0 0 0 
0 0 0 0 0 0 0 0 0 
0 0 0 0 0 0 0 0 0 
0 0 0 0 0 0 0 0 0 
0 0 0 0 0 0 0 0 0 
0 0 0 0 0 0 0 0 0 
0 0 0 0 0 0 0 0 0 
0 0 0 0 0 0 0 0 0 
0 0 0 0 0 0 0 0 0 
0 0 0 0 0 0 0 0 0 
0 0 0 0 0 0 0 0 0 
0 0 0 0 0 0 0 0 0 
0 0 0 0 0 0 0 0 0 
0 0 0 0 0 0 0 0 0 
0 0 0 0 0 0 0 0 0 
0 0 0 0 0 0 0 0 0 
0 0 0 0 0 0 0 0 0 
0 0 0 0 0 0 0 0 0 
0 0 0 0 0 0 0 0 0 
0 0 0 0 0 0 0 0 0 
0 0 0 0 0 0 0 0 0 
0 0 0 0 0 0 0 0 0 
0 0 0 0 0 0 0 0 0 
0 0 0 0 0 0 0 0 0 
0 0 0 0 0 0 0 0 0 
0 0 0 0 0 0 0 0 0 
0 0 0 0 0 0 0 0 0 
0 0 0 0 0 0 0 0 0 
0 0 0 0 0 0 0 0 0 
0 0 0 0 0 0 0 0 0 
0 0 0 0 0 0 0 0 0 
0 0 0 0 0 0 0 0 0 
0 0 0 0 0 0 0 0 0 
0 0 0 0 0 0 0 0 0 
0 0 0 0 0 0 0 0 0 
0 0 0 0 0 0 0 0 0 
0 0 0 0 0 0 0 0 0 
0 0 0 0 0 0 0 0 0 
0 0 0 0 0 0 0 0 0 
0 0 0 0 0 0 0 0 0 
0 0 0 0 0 0 0 0 0 
0 0 0 0 0 0 0 0 0 
0 0 0 0 0 0 0 0 0 
0 0 0 0 0 0 0 0 0 
0 0 0 0 0 0 0 0 0 
0 0 0 0 0 0 0 0 0 
0 0 0 0 0 0 0 0 0 
0 0 0 0 0 0 0 0 0 
0 0 0 0 0 0 0 0 0 
0 0 0 0 0 0 0 0 0 
0 0 0 0 0 0 0 0 0 
0 0 0 0 0 0 0 0 0 
0 0 0 0 0 0 0 0 0 
0 0 0 0 0 0 0 0 0 
0 0 0 0 0 0 0 0 0 
0 0 0 0 0 0 0 0 0 
0 0 0 0 0 0 0 0 0 
0 0 0 0 0 0 0 0 0 
0 0 0 0 0 0 0 0 0 
0 0 0 0 0 0 0 0 0 
0 0 0 0 0 0 0 0 0 
0 0 0 0 0 0 0 0 0 
0 0 0 0 0 0 0 0 0 
0 0 0 0 0 0 0 0 0 
0 0 0 0 0 0 0 0 0 
0 0 0 0 0 0 0 0 0 
0 0 0 0 0 0 0 0 0 
0 0 0 0 0 0 0 0 0 
0 0 0 0 0 0 0 0 0 
0 0 0 0 0 0 0 0 0 
0 0 0 0 0 0 0 0 0 
0 0 0 0 0 0 0 0 0 
0 0 0 0 0 0 0 0 0 
0 0 0 0 0 0 0 0 0 
0 0 0 0 0 0 0 0 0 
0 0 0 0 0 0 0 0 0 
0 0 0 0 0 0 0 0 0 
0 0 0 0 0 0 0 0 0 
0 0 0 0 0 0 0 0 0 
0 0 0 0 0 0 0 0 0 
0 0 0 0 0 0 0 0 0 
0 0 0 0 0 0 0 0 0 
0 0 0 0 0 0 0 0 0 
0 0 0 0 0 0 0 0 0 
0 0 0 0 0 0 0 0 0 
0 0 0 0 0 0 0 0 0 
0 0 0 0 0 0 0 0 0 
0 0 0 0 0 0 0 0 0 
0 0 0 0 0 0 0 0 0 
0 0 0 0 0 0 0 0 0 
0 0 0 0 0 0 0 0 0 
0 0 0 0 0 0 0 0 0 
0 0 0 0 0 0 0 0 0 
0 0 0 0 0 0 0 0 0 
0 0 0 0 0 0 0 0 0 
0 0 0 0 0 0 0 0 0 
0 0 0 0 0 0 0 0 0 
0 0 0 0 0 0 0 0 0 
0 0 0 0 0 0 0 0 0 
0 0 0 0 0 0 0 0 0 
0 0 0 0 0 0 0 0 0 
0 0 0 0 0 0 0 0 0 
0 0 0 0 0 0 0 0 0 
0 0 0 0 0 0 0 0 0 
0 0 0 0 0 0 0 0 0 
0 0 0 0 0 0 0 0 0 
0 0 0 0 0 0 0 0 0 
0 0 0 0 0 0 0 0 0 
0 0 0 0 0 0 0 0 0 
0 0 0 0 0 0 0 0 0 
0 0 0 0 0 0 0 0 0 
0 0 0 0 0 0 0 0 0 
0 0 0 0 0 0 0 0 0 
0 0 0 0 0 0 0 0 0 
0 0 0 0 0 0 0 0 0 
0 0 0 0 0 0 0 0 0 
0 0 0 0 0 0 0 0 0 
0 0 0 0 0 0 0 0 0 
0 0 0 0 0 0 0 0 0 
0 0 0 0 0 0 0 0 0 
0 0 0 0 0 0 0 0 0 
0 0 0 0 0 0 0 0 0 
0 0 0 0 0 0 0 0 0 
0 0 0 0 0 0 0 0 0 
0 0 0 0 0 0 0 0 0 
0 0 0 0 0 0 0 0 0 
0 0 0 0 0 0 0 0 0 
0 0 0 0 0 0 0 0 0 
0 0 0 0 0 0 0 0 0 
0 0 0 0 0 0 0 0 0 
0 0 0 0 0 0 0 0 0 
0 0 0 0 0 0 0 0 0 
0 0 0 0 0 0 0 0 0 
0 0 0 0 0 0 0 0 0 
0 0 0 0 0 0 0 0 0 
0 0 0 0 0 0 0 0 0 
0 0 0 0 0 0 0 0 0 
0 0 0 0 0 0 0 0 0 
0 0 0 0 0 0 0 0 0 
0 0 0 0 0 0 0 0 0 
0 0 0 0 0 0 0 0 0 
0 0 0 0 0 0 0 0 0 
0 0 0 0 0 0 0 0 0 
0 0 0 0 0 0 0 0 0 
0 0 0 0 0 0 0 0 0 
0 0 0 0 0 0 0 0 0 
0 0 0 0 0 0 0 0 0 
0 0 0 0 0 0 0 0 0 
0 0 0 0 0 0 0 0 0 
0 0 0 0 0 0 0 0 0 
0 0 0 0 0 0 0 0 0 
0 0 0 0 0 0 0 0 0 
0 0 0 0 0 0 0 0 0 
0 0 0 0 0 0 0 0 0 
0 0 0 0 0 0 0 0 0 
0 0 0 0 0 0 0 0 0 
0 0 0 0 0 0 0 0 0 
0 0 0 0 0 0 0 0 0 
0 0 0 0 0 0 0 0 0 
0 0 0 0 0 0 0 0 0 
0 0 0 0 0 0 0 0 0 
0 0 0 0 0 0 0 0 0 
0 0 0 0 0 0 0 0 0 
0 0 0 0 0 0 0 0 0 
0 0 0 0 0 0 0 0 0 
0 0 0 0 0 0 0 0 0 
0 0 0 0 0 0 0 0 0 
0 0 0 0 0 0 0 0 0 
0 0 0 0 0 0 0 0 0 
0 0 0 0 0 0 0 0 0 
0 0 0 0 0 0 0 0 0 
0 0 0 0 0 0 0 0 0 
0 0 0 0 0 0 0 0 0 
0 0 0 0 0 0 0 0 0 
0 0 0 0 0 0 0 0 0 
0 0 0 0 0 0 0 0 0 
0 0 0 0 0 0 0 0 0 
0 0 0 0 0 0 0 0 0 
0 0 0 0 0 0 0 0 0 
0 0 0 0 0 0 0 0 0 
0 0 0 0 0 0 0 0 0 
0 0 0 0 0 0 0 0 0 
0 0 0 0 0 0 0 0 0 
0 0 0 0 0 0 0 0 0 
0 0 0 0 0 0 0 0 0 
0 0 0 0 0 0 0 0 0 
0 0 0 0 0 0 0 0 0 
0 0 0 0 0 0 0 0 0 
0 0 0 0 0 0 0 0 0 
0 0 0 0 0 0 0 0 0 
0 0 0 0 0 0 0 0 0 
0 0 0 0 0 0 0 0 0 
0 0 0 0 0 0 0 0 0 
0 0 0 0 0 0 0 0 0 
0 0 0 0 0 0 0 0 0 
0 0 0 0 0 0 0 0 0 
0 0 0 0 0 0 0 0 0 
0 0 0 0 0 0 0 0 0 
0 0 0 0 0 0 0 0 0 
0 0 0 0 0 0 0 0 0 
0 0 0 0 0 0 0 0 0 
0 0 0 0 0 0 0 0 0 
0 0 0 0 0 0 0 0 0 
0 0 0 0 0 0 0 0 0 
0 0 0 0 0 0 0 0 0 
0 0 0 0 0 0 0 0 0 
0 0 0 0 0 0 0 0 0 
0 0 0 0 0 0 0 0 0 
0 0 0 0 0 0 0 0 0 
0 0 0 0 0 0 0 0 0 
0 0 0 0 0 0 0 0 0 
0 0 0 0 0 0 0 0 0 
0 0 0 0 0 0 0 0 0 
0 0 0 0 0 0 0 0 0 
0 0 0 0 0 0 0 0 0 
0 0 0 0 0 0 0 0 0 
0 0 0 0 0 0 0 0 0 
0 0 0 0 0 0 0 0 0 
0 0 0 0 0 0 0 0 0 
0 0 0 0 0 0 0 0 0 
0 0 0 0 0 0 0 0 0 
0 0 0 0 0 0 0 0 0 
0 0 0 0 0 0 0 0 0 
0 0 0 0 0 0 0 0 0 
0 0 0 0 0 0 0 0 0 
0 0 0 0 0 0 0 0 0 
0 0 0 0 0 0 0 0 0 
0 0 0 0 0 0 0 0 0 
0 0 0 0 0 0 0 0 0 
0 0 0 0 0 0 0 0 0 
0 0 0 0 0 0 0 0 0 
0 0 0 0 0 0 0 0 0 
0 0 0 0 0 0 0 0 0 
0 0 0 0 0 0 0 0 0 
0 0 0 0 0 0 0 0 0 
0 0 0 0 0 0 0 0 0 
0 0 0 0 0 0 0 0 0 
0 0 0 0 0 0 0 0 0 
0 0 0 0 0 0 0 0 0 
0 0 0 0 0 0 0 0 0 
0 0 0 0 0 0 0 0 0 
0 0 0 0 0 0 0 0 0 
0 0 0 0 0 0 0 0 0 
0 0 0 0 0 0 0 0 0 
0 0 0 0 0 0 0 0 0 
0 0 0 0 0 0 0 0 0 
0 0 0 0 0 0 0 0 0 
0 0 0 0 0 0 0 0 0 
0 0 0 0 0 0 0 0 0 
0 0 0 0 0 0 0 0 0 
0 0 0 0 0 0 0 0 0 
0 0 0 0 0 0 0 0 0 
0 0 0 0 0 0 0 0 0 
0 0 0 0 0 0 0 0 0 
0 0 0 0 0 0 0 0 0 
0 0 0 0 0 0 0 0 0 
0 0 0 0 0 0 0 0 0 
0 0 0 0 0 0 0 0 0 
0 0 0 0 0 0 0 0 0 
0 0 0 0 0 0 0 0 0 
0 0 0 0 0 0 0 0 0 
0 0 0 0 0 0 0 0 0 
0 0 0 0 0 0 0 0 0 
0 0 0 0 0 0 0 0 0 
0 0 0 0 0 0 0 0 0 
0 0 0 0 0 0 0 0 0 
0 0 0 0 0 0 0 0 0 
0 0 0 0 0 0 0 0 0 
0 0 0 0 0 0 0 0 0 
0 0 0 0 0 0 0 0 0 
0 0 0 0 0 0 0 0 0 
0 0 0 0 0 0 0 0 0 
0 0 0 0 0 0 0 0 0 
0 0 0 0 0 0 0 0 0 
0 0 0 0 0 0 0 0 0 
0 0 0 0 0 0 0 0 0 
0 0 0 0 0 0 0 0 0 
0 0 0 0 0 0 0 0 0 
0 0 0 0 0 0 0 0 0 
0 0 0 0 0 0 0 0 0 
0 0 0 0 0 0 0 0 0 
0 0 0 0 0 0 0 0 0 
0 0 0 0 0 0 0 0 0 
0 0 0 0 0 0 0 0 0 
0 0 0 0 0 0 0 0 0 
0 0 0 0 0 0 0 0 0 
0 0 0 0 0 0 0 0 0 
0 0 0 0 0 0 0 0 0 
0 0 0 0 0 0 0 0 0 
0 0 0 0 0 0 0 0 0 
0 0 0 0 0 0 0 0 0 
0 0 0 0 0 0 0 0 0 
0 0 0 0 0 0 0 0 0 
0 0 0 0 0 0 0 0 0 
0 0 0 0 0 0 0 0 0 
0 0 0 0 0 0 0 0 0 
0 0 0 0 0 0 0 0 0 
0 0 0 0 0 0 0 0 0 
0 0 0 0 0 0 0 0 0 
0 0 0 0 0 0 0 0 0 
0 0 0 0 0 0 0 0 0 
0 0 0 0 0 0 0 0 0 
0 0 0 0 0 0 0 0 0 
0 0 0 0 0 0 0 0 0 
0 0 0 0 0 0 0 0 0 
0 0 0 0 0 0 0 0 0 
0 0 0 0 0 0 0 0 0 
0 0 0 0 0 0 0 0 0 
0 0 0 0 0 0 0 0 0 
0 0 0 0 0 0 0 0 0 
0 0 0 0 0 0 0 0 0 
0 0 0 0 0 0 0 0 0 
0 0 0 0 0 0 0 0 0 
0 0 0 0 0 0 0 0 0 
0 0 0 0 0 0 0 0 0 
0 0 0 0 0 0 0 0 0 
0 0 0 0 0 0 0 0 0 
0 0 0 0 0 0 0 0 0 
0 0 0 0 0 0 0 0 0 
0 0 0 0 0 0 0 0 0 
0 0 0 0 0 0 0 0 0 
0 0 0 0 0 0 0 0 0 
0 0 0 0 0 0 0 0 0 
0 0 0 0 0 0 0 0 0 
0 0 0 0 0 0 0 0 0 
0 0 0 0 0 0 0 0 0 
0 0 0 0 0 0 0 0 0 
0 0 0 0 0 0 0 0 0 
0 0 0 0 0 0 0 0 0 
0 0 0 0 0 0 0 0 0 
0 0 0 0 0 0 0 0 0 
0 0 0 0 0 0 0 0 0 
0 0 0 0 0 0 0 0 0 
0 0 0 0 0 0 0 0 0 
0 0 0 0 0 0 0 0 0 
0 0 0 0 0 0 0 0 0 
0 0 0 0 0 0 0 0 0 
0 0 0 0 0 0 0 0 0 
0 0 0 0 0 0 0 0 0 
0 0 0 0 0 0 0 0 0 
0 0 0 0 0 0 0 0 0 
0 0 0 0 0 0 0 0 0 
0 0 0 0 0 0 0 0 0 
0 0 0 0 0 0 0 0 0 
0 0 0 0 0 0 0 0 0 
0 0 0 0 0 0 0 0 0 
0 0 0 0 0 0 0 0 0 
0 0 0 0 0 0 0 0 0 
0 0 0 0 0 0 0 0 0 
0 0 0 0 0 0 0 0 0 
0 0 0 0 0 0 0 0 0 
0 0 0 0 0 0 0 0 0 
0 0 0 0 0 0 0 0 0 
0 0 0 0 0 0 0 0 0 
0 0 0 0 0 0 0 0 0 
0 0 0 0 0 0 0 0 0 
0 0 0 0 0 0 0 0 0 
0 0 0 0 0 0 0 0 0 
0 0 0 0 0 0 0 0 0 
0 0 0 0 0 0 0 0 0 
0 0 0 0 0 0 0 0 0 
0 0 0 0 0 0 0 0 0 
0 0 0 0 0 0 0 0 0 
0 0 0 0 0 0 0 0 0 
0 0 0 0 0 0 0 0 0 
0 0 0 0 0 0 0 0 0 
0 0 0 0 0 0 0 0 0 
0 0 0 0 0 0 0 0 0 
0 0 0 0 0 0 0 0 0 
0 0 0 0 0 0 0 0 0 
0 0 0 0 0 0 0 0 0 
0 0 0 0 0 0 0 0 0 
0 0 0 0 0 0 0 0 0 
0 0 0 0 0 0 0 0 0 
0 0 0 0 0 0 0 0 0 
0 0 0 0 0 0 0 0 0 
0 0 0 0 0 0 0 0 0 
0 0 0 0 0 0 0 0 0 
0 0 0 0 0 0 0 0 0 
0 0 0 0 0 0 0 0 0 
0 0 0 0 0 0 0 0 0 
0 0 0 0 0 0 0 0 0 
0 0 0 0 0 0 0 0 0 
0 0 0 0 0 0 0 0 0 
0 0 0 0 0 0 0 0 0 
0 0 0 0 0 0 0 0 0 
0 0 0 0 0 0 0 0 0 
0 0 0 0 0 0 0 0 0 
0 0 0 0 0 0 0 0 0 
0 0 0 0 0 0 0 0 0 
0 0 0 0 0 0 0 0 0 
0 0 0 0 0 0 0 0 0 
0 0 0 0 0 0 0 0 0 
0 0 0 0 0 0 0 0 0 
0 0 0 0 0 0 0 0 0 
0 0 0 0 0 0 0 0 0 
0 0 0 0 0 0 0 0 0 
0 0 0 0 0 0 0 0 0 
0 0 0 0 0 0 0 0 0 
0 0 0 0 0 0 0 0 0 
0 0 0 0 0 0 0 0 0 
0 0 0 0 0 0 0 0 0 
0 0 0 0 0 0 0 0 0 
0 0 0 0 0 0 0 0 0 
0 0 0 0 0 0 0 0 0 
0 0 0 0 0 0 0 0 0 
0 0 0 0 0 0 0 0 0 
0 0 0 0 0 0 0 0 0 
0 0 0 0 0 0 0 0 0 
0 0 0 0 0 0 0 0 0 
0 0 0 0 0 0 0 0 0 
0 0 0 0 0 0 0 0 0 
0 0 0 0 0 0 0 0 0 
0 0 0 0 0 0 0 0 0 
0 0 0 0 0 0 0 0 0 
0 0 0 0 0 0 0 0 0 
0 0 0 0 0 0 0 0 0 
0 0 0 0 0 0 0 0 0 
0 0 0 0 0 0 0 0 0 
0 0 0 0 0 0 0 0 0 
0 0 0 0 0 0 0 0 0 
0 0 0 0 0 0 0 0 0 
0 0 0 0 0 0 0 0 0 
0 0 0 0 0 0 0 0 0 
0 0 0 0 0 0 0 0 0 
0 0 0 0 0 0 0 0 0 
0 0 0 0 0 0 0 0 0 
0 0 0 0 0 0 0 0 0 
0 0 0 0 0 0 0 0 0 
0 0 0 0 0 0 0 0 0 
0 0 0 0 0 0 0 0 0 
0 0 0 0 0 0 0 0 0 
0 0 0 0 0 0 0 0 0 
0 0 0 0 0 0 0 0 0 
0 0 0 0 0 0 0 0 0 
0 0 0 0 0 0 0 0 0 
0 0 0 0 0 0 0 0 0 
0 0 0 0 0 0 0 0 0 
0 0 0 0 0 0 0 0 0 
0 0 0 0 0 0 0 0 0 
0 0 0 0 0 0 0 0 0 
0 0 0 0 0 0 0 0 0 
0 0 0 0 0 0 0 0 0 
0 0 0 0 0 0 0 0 0 
0 0 0 0 0 0 0 0 0 
0 0 0 0 0 0 0 0 0 
0 0 0 0 0 0 0 0 0 
0 0 0 0 0 0 0 0 0 
0 0 0 0 0 0 0 0 0 
0 0 0 0 0 0 0 0 0 
0 0 0 0 0 0 0 0 0 
0 0 0 0 0 0 0 0 0 
0 0 0 0 0 0 0 0 0 
0 0 0 0 0 0 0 0 0 
0 0 0 0 0 0 0 0 0 
0 0 0 0 0 0 0 0 0 
0 0 0 0 0 0 0 0 0 
0 0 0 0 0 0 0 0 0 
0 0 0 0 0 0 0 0 0 
0 0 0 0 0 0 0 0 0 
0 0 0 0 0 0 0 0 0 
0 0 0 0 0 0 0 0 0 
0 0 0 0 0 0 0 0 0 
0 0 0 0 0 0 0 0 0 
0 0 0 0 0 0 0 0 0 
0 0 0 0 0 0 0 0 0 
0 0 0 0 0 0 0 0 0 
0 0 0 0 0 0 0 0 0 
0 0 0 0 0 0 0 0 0 
0 0 0 0 0 0 0 0 0 
0 0 0 0 0 0 0 0 0 
0 0 0 0 0 0 0 0 0 
0 0 0 0 0 0 0 0 0 
0 0 0 0 0 0 0 0 0 
0 0 0 0 0 0 0 0 0 
0 0 0 0 0 0 0 0 0 
0 0 0 0 0 0 0 0 0 
0 0 0 0 0 0 0 0 0 
0 0 0 0 0 0 0 0 0 
0 0 0 0 0 0 0 0 0 
0 0 0 0 0 0 0 0 0 
0 0 0 0 0 0 0 0 0 
0 0 0 0 0 0 0 0 0 
0 0 0 0 0 0 0 0 0 
0 0 0 0 0 0 0 0 0 
0 0 0 0 0 0 0 0 0 
0 0 0 0 0 0 0 0 0 
0 0 0 0 0 0 0 0 0 
0 0 0 0 0 0 0 0 0 
0 0 0 0 0 0 0 0 0 
0 0 0 0 0 0 0 0 0 
0 0 0 0 0 0 0 0 0 
0 0 0 0 0 0 0 0 0 
0 0 0 0 0 0 0 0 0 
0 0 0 0 0 0 0 0 0 
0 0 0 0 0 0 0 0 0 
0 0 0 0 0 0 0 0 0 
0 0 0 0 0 0 0 0 0 
0 0 0 0 0 0 0 0 0 
0 0 0 0 0 0 0 0 0 
0 0 0 0 0 0 0 0 0 
0 0 0 0 0 0 0 0 0 
0 0 0 0 0 0 0 0 0 
0 0 0 0 0 0 0 0 0 
0 0 0 0 0 0 0 0 0 
0 0 0 0 0 0 0 0 0 
0 0 0 0 0 0 0 0 0 
0 0 0 0 0 0 0 0 0 
0 0 0 0 0 0 0 0 0 
0 0 0 0 0 0 0 0 0 
0 0 0 0 0 0 0 0 0 
0 0 0 0 0 0 0 0 0 
0 0 0 0 0 0 0 0 0 
0 0 0 0 0 0 0 0 0 
0 0 0 0 0 0 0 0 0 
0 0 0 0 0 0 0 0 0 
0 0 0 0 0 0 0 0 0 
0 0 0 0 0 0 0 0 0 
0 0 0 0 0 0 0 0 0 
0 0 0 0 0 0 0 0 0 
0 0 0 0 0 0 0 0 0 
0 0 0 0 0 0 0 0 0 
0 0 0 0 0 0 0 0 0 
0 0 0 0 0 0 0 0 0 
0 0 0 0 0 0 0 0 0 
0 0 0 0 0 0 0 0 0 
0 0 0 0 0 0 0 0 0 
0 0 0 0 0 0 0 0 0 
0 0 0 0 0 0 0 0 0 
0 0 0 0 0 0 0 0 0 
0 0 0 0 0 0 0 0 0 
0 0 0 0 0 0 0 0 0 
0 0 0 0 0 0 0 0 0 
0 0 0 0 0 0 0 0 0 
0 0 0 0 0 0 0 0 0 
0 0 0 0 0 0 0 0 0 
0 0 0 0 0 0 0 0 0 
0 0 0 0 0 0 0 0 0 
0 0 0 0 0 0 0 0 0 
0 0 0 0 0 0 0 0 0 
0 0 0 0 0 0 0 0 0 
0 0 0 0 0 0 0 0 0 
0 0 0 0 0 0 0 0 0 
0 0 0 0 0 0 0 0 0 
0 0 0 0 0 0 0 0 0 
0 0 0 0 0 0 0 0 0 
0 0 0 0 0 0 0 0 0 
0 0 0 0 0 0 0 0 0 
0 0 0 0 0 0 0 0 0 
0 0 0 0 0 0 0 0 0 
0 0 0 0 0 0 0 0 0 
0 0 0 0 0 0 0 0 0 
0 0 0 0 0 0 0 0 0 
0 0 0 0 0 0 0 0 0 
0 0 0 0 0 0 0 0 0 
0 0 0 0 0 0 0 0 0 
0 0 0 0 0 0 0 0 0 
0 0 0 0 0 0 0 0 0 
0 0 0 0 0 0 0 0 0 
0 0 0 0 0 0 0 0 0 
0 0 0 0 0 0 0 0 0 
0 0 0 0 0 0 0 0 0 
0 0 0 0 0 0 0 0 0 
0 0 0 0 0 0 0 0 0 
0 0 0 0 0 0 0 0 0 
0 0 0 0 0 0 0 0 0 
0 0 0 0 0 0 0 0 0 
0 0 0 0 0 0 0 0 0 
0 0 0 0 0 0 0 0 0 
0 0 0 0 0 0 0 0 0 
0 0 0 0 0 0 0 0 0 
0 0 0 0 0 0 0 0 0 
0 0 0 0 0 0 0 0 0 
0 0 0 0 0 0 0 0 0 
0 0 0 0 0 0 0 0 0 
0 0 0 0 0 0 0 0 0 
0 0 0 0 0 0 0 0 0 
0 0 0 0 0 0 0 0 0 
0 0 0 0 0 0 0 0 0 
0 0 0 0 0 0 0 0 0 
0 0 0 0 0 0 0 0 0 
0 0 0 0 0 0 0 0 0 
0 0 0 0 0 0 0 0 0 
0 0 0 0 0 0 0 0 0 
0 0 0 0 0 0 0 0 0 
0 0 0 0 0 0 0 0 0 
0 0 0 0 0 0 0 0 0 
0 0 0 0 0 0 0 0 0 
0 0 0 0 0 0 0 0 0 
0 0 0 0 0 0 0 0 0 
0 0 0 0 0 0 0 0 0 
0 0 0 0 0 0 0 0 0 
0 0 0 0 0 0 0 0 0 
0 0 0 0 0 0 0 0 0 
0 0 0 0 0 0 0 0 0 
0 0 0 0 0 0 0 0 0 
0 0 0 0 0 0 0 0 0 
0 0 0 0 0 0 0 0 0 
0 0 0 0 0 0 0 0 0 
0 0 0 0 0 0 0 0 0 
0 0 0 0 0 0 0 0 0 
0 0 0 0 0 0 0 0 0 
0 0 0 0 0 0 0 0 0 
0 0 0 0 0 0 0 0 0 
0 0 0 0 0 0 0 0 0 
0 0 0 0 0 0 0 0 0 
0 0 0 0 0 0 0 0 0 
0 0 0 0 0 0 0 0 0 
0 0 0 0 0 0 0 0 0 
0 0 0 0 0 0 0 0 0 
0 0 0 0 0 0 0 0 0 
0 0 0 0 0 0 0 0 0 
0 0 0 0 0 0 0 0 0 
0 0 0 0 0 0 0 0 0 
0 0 0 0 0 0 0 0 0 
0 0 0 0 0 0 0 0 0 
0 0 0 0 0 0 0 0 0 
0 0 0 0 0 0 0 0 0 
0 0 0 0 0 0 0 0 0 
0 0 0 0 0 0 0 0 0 
0 0 0 0 0 0 0 0 0 
0 0 0 0 0 0 0 0 0 
0 0 0 0 0 0 0 0 0 
0 0 0 0 0 0 0 0 0 
0 0 0 0 0 0 0 0 0 
0 0 0 0 0 0 0 0 0 
0 0 0 0 0 0 0 0 0 
0 0 0 0 0 0 0 0 0 
0 0 0 0 0 0 0 0 0 
0 0 0 0 0 0 0 0 0 
0 0 0 0 0 0 0 0 0 
0 0 0 0 0 0 0 0 0 
0 0 0 0 0 0 0 0 0 
0 0 0 0 0 0 0 0 0 
0 0 0 0 0 0 0 0 0 
0 0 0 0 0 0 0 0 0 
0 0 0 0 0 0 0 0 0 
0 0 0 0 0 0 0 0 0 
0 0 0 0 0 0 0 0 0 
0 0 0 0 0 0 0 0 0 
0 0 0 0 0 0 0 0 0 
0 0 0 0 0 0 0 0 0 
0 0 0 0 0 0 0 0 0 
0 0 0 0 0 0 0 0 0 
0 0 0 0 0 0 0 0 0 
0 0 0 0 0 0 0 0 0 
0 0 0 0 0 0 0 0 0 
0 0 0 0 0 0 0 0 0 
0 0 0 0 0 0 0 0 0 
0 0 0 0 0 0 0 0 0 
0 0 0 0 0 0 0 0 0 
0 0 0 0 0 0 0 0 0 
0 0 0 0 0 0 0 0 0 
0 0 0 0 0 0 0 0 0 
0 0 0 0 0 0 0 0 0 
0 0 0 0 0 0 0 0 0 
0 0 0 0 0 0 0 0 0 
0 0 0 0 0 0 0 0 0 
0 0 0 0 0 0 0 0 0 
0 0 0 0 0 0 0 0 0 
0 0 0 0 0 0 0 0 0 
0 0 0 0 0 0 0 0 0 
0 0 0 0 0 0 0 0 0 
0 0 0 0 0 0 0 0 0 
0 0 0 0 0 0 0 0 0 
0 0 0 0 0 0 0 0 0 
0 0 0 0 0 0 0 0 0 
0 0 0 0 0 0 0 0 0 
0 0 0 0 0 0 0 0 0 
0 0 0 0 0 0 0 0 0 
0 0 0 0 0 0 0 0 0 
0 0 0 0 0 0 0 0 0 
0 0 0 0 0 0 0 0 0 
0 0 0 0 0 0 0 0 0 
0 0 0 0 0 0 0 0 0 
0 0 0 0 0 0 0 0 0 
0 0 0 0 0 0 0 0 0 
0 0 0 0 0 0 0 0 0 
0 0 0 0 0 0 0 0 0 
0 0 0 0 0 0 0 0 0 
0 0 0 0 0 0 0 0 0 
0 0 0 0 0 0 0 0 0 
0 0 0 0 0 0 0 0 0 
0 0 0 0 0 0 0 0 0 
0 0 0 0 0 0 0 0 0 
0 0 0 0 0 0 0 0 0 
0 0 0 0 0 0 0 0 0 
0 0 0 0 0 0 0 0 0 
0 0 0 0 0 0 0 0 0 
0 0 0 0 0 0 0 0 0 
0 0 0 0 0 0 0 0 0 
0 0 0 0 0 0 0 0 0 
0 0 0 0 0 0 0 0 0 
0 0 0 0 0 0 0 0 0 
0 0 0 0 0 0 0 0 0 
0 0 0 0 0 0 0 0 0 
0 0 0 0 0 0 0 0 0 
0 0 0 0 0 0 0 0 0 
0 0 0 0 0 0 0 0 0 
0 0 0 0 0 0 0 0 0 
0 0 0 0 0 0 0 0 0 
0 0 0 0 0 0 0 0 0 
0 0 0 0 0 0 0 0 0 
0 0 0 0 0 0 0 0 0 
0 0 0 0 0 0 0 0 0 
0 0 0 0 0 0 0 0 0 
0 0 0 0 0 0 0 0 0 
0 0 0 0 0 0 0 0 0 
0 0 0 0 0 0 0 0 0 
0 0 0 0 0 0 0 0 0 
0 0 0 0 0 0 0 0 0 
0 0 0 0 0 0 0 0 0 
0 0 0 0 0 0 0 0 0 
0 0 0 0 0 0 0 0 0 
0 0 0 0 0 0 0 0 0 
0 0 0 0 0 0 0 0 0 
0 0 0 0 0 0 0 0 0 
0 0 0 0 0 0 0 0 0 
0 0 0 0 0 0 0 0 0 
0 0 0 0 0 0 0 0 0 
0 0 0 0 0 0 0 0 0 
0 0 0 0 0 0 0 0 0 
0 0 0 0 0 0 0 0 0 
0 0 0 0 0 0 0 0 0 
0 0 0 0 0 0 0 0 0 
0 0 0 0 0 0 0 0 0 
0 0 0 0 0 0 0 0 0 
0 0 0 0 0 0 0 0 0 
0 0 0 0 0 0 0 0 0 
0 0 0 0 0 0 0 0 0 
0 0 0 0 0 0 0 0 0 
0 0 0 0 0 0 0 0 0 
0 0 0 0 0 0 0 0 0 
0 0 0 0 0 0 0 0 0 
0 0 0 0 0 0 0 0 0 
0 0 0 0 0 0 0 0 0 
0 0 0 0 0 0 0 0 0 
0 0 0 0 0 0 0 0 0 
0 0 0 0 0 0 0 0 0 
0 0 0 0 0 0 0 0 0 
0 0 0 0 0 0 0 0 0 
0 0 0 0 0 0 0 0 0 
0 0 0 0 0 0 0 0 0 
0 0 0 0 0 0 0 0 0 
0 0 0 0 0 0 0 0 0 
0 0 0 0 0 0 0 0 0 
0 0 0 0 0 0 0 0 0 
0 0 0 0 0 0 0 0 0 
0 0 0 0 0 0 0 0 0 
0 0 0 0 0 0 0 0 0 
0 0 0 0 0 0 0 0 0 
0 0 0 0 0 0 0 0 0 
0 0 0 0 0 0 0 0 0 
0 0 0 0 0 0 0 0 0 
0 0 0 0 0 0 0 0 0 
0 0 0 0 0 0 0 0 0 
0 0 0 0 0 0 0 0 0 
0 0 0 0 0 0 0 0 0 
0 0 0 0 0 0 0 0 0 
0 0 0 0 0 0 0 0 0 
0 0 0 0 0 0 0 0 0 
0 0 0 0 0 0 0 0 0 
0 0 0 0 0 0 0 0 0 
0 0 0 0 0 0 0 0 0 
0 0 0 0 0 0 0 0 0 
0 0 0 0 0 0 0 0 0 
0 0 0 0 0 0 0 0 0 
0 0 0 0 0 0 0 0 0 
0 0 0 0 0 0 0 0 0 
0 0 0 0 0 0 0 0 0 
0 0 0 0 0 0 0 0 0 
0 0 0 0 0 0 0 0 0 
0 0 0 0 0 0 0 0 0 
0 0 0 0 0 0 0 0 0 
0 0 0 0 0 0 0 0 0 
0 0 0 0 0 0 0 0 0 
0 0 0 0 0 0 0 0 0 
0 0 0 0 0 0 0 0 0 
0 0 0 0 0 0 0 0 0 
0 0 0 0 0 0 0 0 0 
0 0 0 0 0 0 0 0 0 
0 0 0 0 0 0 0 0 0 
0 0 0 0 0 0 0 0 0 
0 0 0 0 0 0 0 0 0 
0 0 0 0 0 0 0 0 0 
0 0 0 0 0 0 0 0 0 
0 0 0 0 0 0 0 0 0 
0 0 0 0 0 0 0 0 0 
0 0 0 0 0 0 0 0 0 
0 0 0 0 0 0 0 0 0 
0 0 0 0 0 0 0 0 0 
0 0 0 0 0 0 0 0 0 
0 0 0 0 0 0 0 0 0 
0 0 0 0 0 0 0 0 0 
0 0 0 0 0 0 0 0 0 
0 0 0 0 0 0 0 0 0 
0 0 0 0 0 0 0 0 0 
0 0 0 0 0 0 0 0 0 
0 0 0 0 0 0 0 0 0 
0 0 0 0 0 0 0 0 0 
0 0 0 0 0 0 0 0 0 
0 0 0 0 0 0 0 0 0 
0 0 0 0 0 0 0 0 0 
0 0 0 0 0 0 0 0 0 
0 0 0 0 0 0 0 0 0 
0 0 0 0 0 0 0 0 0 
0 0 0 0 0 0 0 0 0 
0 0 0 0 0 0 0 0 0 
0 0 0 0 0 0 0 0 0 
0 0 0 0 0 0 0 0 0 
0 0 0 0 0 0 0 0 0 
0 0 0 0 0 0 0 0 0 
0 0 0 0 0 0 0 0 0 
0 0 0 0 0 0 0 0 0 
0 0 0 0 0 0 0 0 0 
0 0 0 0 0 0 0 0 0 
0 0 0 0 0 0 0 0 0 
0 0 0 0 0 0 0 0 0 
0 0 0 0 0 0 0 0 0 
0 0 0 0 0 0 0 0 0 
0 0 0 0 0 0 0 0 0 
0 0 0 0 0 0 0 0 0 
0 0 0 0 0 0 0 0 0 
0 0 0 0 0 0 0 0 0 
0 0 0 0 0 0 0 0 0 
0 0 0 0 0 0 0 0 0 
0 0 0 0 0 0 0 0 0 
0 0 0 0 0 0 0 0 0 
0 0 0 0 0 0 0 0 0 
0 0 0 0 0 0 0 0 0 
0 0 0 0 0 0 0 0 0 
0 0 0 0 0 0 0 0 0 
0 0 0 0 0 0 0 0 0 
0 0 0 0 0 0 0 0 0 
0 0 0 0 0 0 0 0 0 
0 0 0 0 0 0 0 0 0 
0 0 0 0 0 0 0 0 0 
0 0 0 0 0 0 0 0 0 
0 0 0 0 0 0 0 0 0 
0 0 0 0 0 0 0 0 0 
0 0 0 0 0 0 0 0 0 
0 0 0 0 0 0 0 0 0 
0 0 0 0 0 0 0 0 0 
0 0 0 0 0 0 0 0 0 
0 0 0 0 0 0 0 0 0 
0 0 0 0 0 0 0 0 0 
0 0 0 0 0 0 0 0 0 
0 0 0 0 0 0 0 0 0 
0 0 0 0 0 0 0 0 0 
0 0 0 0 0 0 0 0 0 
0 0 0 0 0 0 0 0 0 
0 0 0 0 0 0 0 0 0 
0 0 0 0 0 0 0 0 0 
0 0 0 0 0 0 0 0 0 
0 0 0 0 0 0 0 0 0 
0 0 0 0 0 0 0 0 0 
0 0 0 0 0 0 0 0 0 
0 0 0 0 0 0 0 0 0 
0 0 0 0 0 0 0 0 0 
0 0 0 0 0 0 0 0 0 
0 0 0 0 0 0 0 0 0 
0 0 0 0 0 0 0 0 0 
0 0 0 0 0 0 0 0 0 
0 0 0 0 0 0 0 0 0 
0 0 0 0 0 0 0 0 0 
0 0 0 0 0 0 0 0 0 
0 0 0 0 0 0 0 0 0 
0 0 0 0 0 0 0 0 0 
0 0 0 0 0 0 0 0 0 
0 0 0 0 0 0 0 0 0 
0 0 0 0 0 0 0 0 0 
0 0 0 0 0 0 0 0 0 
0 0 0 0 0 0 0 0 0 
0 0 0 0 0 0 0 0 0 
0 0 0 0 0 0 0 0 0 
0 0 0 0 0 0 0 0 0 
0 0 0 0 0 0 0 0 0 
0 0 0 0 0 0 0 0 0 
0 0 0 0 0 0 0 0 0 
0 0 0 0 0 0 0 0 0 
0 0 0 0 0 0 0 0 0 
0 0 0 0 0 0 0 0 0 
0 0 0 0 0 0 0 0 0 
0 0 0 0 0 0 0 0 0 
0 0 0 0 0 0 0 0 0 
0 0 0 0 0 0 0 0 0 
0 0 0 0 0 0 0 0 0 
0 0 0 0 0 0 0 0 0 
0 0 0 0 0 0 0 0 0 
0 0 0 0 0 0 0 0 0 
0 0 0 0 0 0 0 0 0 
0 0 0 0 0 0 0 0 0 
0 0 0 0 0 0 0 0 0 
0 0 0 0 0 0 0 0 0 
0 0 0 0 0 0 0 0 0 
0 0 0 0 0 0 0 0 0 
0 0 0 0 0 0 0 0 0 
0 0 0 0 0 0 0 0 0 
0 0 0 0 0 0 0 0 0 
0 0 0 0 0 0 0 0 0 
0 0 0 0 0 0 0 0 0 
0 0 0 0 0 0 0 0 0 
0 0 0 0 0 0 0 0 0 
0 0 0 0 0 0 0 0 0 
0 0 0 0 0 0 0 0 0 
0 0 0 0 0 0 0 0 0 
0 0 0 0 0 0 0 0 0 
0 0 0 0 0 0 0 0 0 
0 0 0 0 0 0 0 0 0 
0 0 0 0 0 0 0 0 0 
0 0 0 0 0 0 0 0 0 
0 0 0 0 0 0 0 0 0 
0 0 0 0 0 0 0 0 0 
0 0 0 0 0 0 0 0 0 
0 0 0 0 0 0 0 0 0 
0 0 0 0 0 0 0 0 0 
0 0 0 0 0 0 0 0 0 
0 0 0 0 0 0 0 0 0 
0 0 0 0 0 0 0 0 0 
0 0 0 0 0 0 0 0 0 
0 0 0 0 0 0 0 0 0 
0 0 0 0 0 0 0 0 0 
0 0 0 0 0 0 0 0 0 
0 0 0 0 0 0 0 0 0 
0 0 0 0 0 0 0 0 0 
0 0 0 0 0 0 0 0 0 
0 0 0 0 0 0 0 0 0 
0 0 0 0 0 0 0 0 0 
0 0 0 0 0 0 0 0 0 
0 0 0 0 0 0 0 0 0 
0 0 0 0 0 0 0 0 0 
0 0 0 0 0 0 0 0 0 
0 0 0 0 0 0 0 0 0 
0 0 0 0 0 0 0 0 0 
0 0 0 0 0 0 0 0 0 
0 0 0 0 0 0 0 0 0 
0 0 0 0 0 0 0 0 0 
0 0 0 0 0 0 0 0 0 
0 0 0 0 0 0 0 0 0 
0 0 0 0 0 0 0 0 0 
0 0 0 0 0 0 0 0 0 
0 0 0 0 0 0 0 0 0 
0 0 0 0 0 0 0 0 0 
0 0 0 0 0 0 0 0 0 
0 0 0 0 0 0 0 0 0 
0 0 0 0 0 0 0 0 0 
0 0 0 0 0 0 0 0 0 
0 0 0 0 0 0 0 0 0 
0 0 0 0 0 0 0 0 0 
0 0 0 0 0 0 0 0 0 
0 0 0 0 0 0 0 0 0 
0 0 0 0 0 0 0 0 0 
0 0 0 0 0 0 0 0 0 
0 0 0 0 0 0 0 0 0 
0 0 0 0 0 0 0 0 0 
0 0 0 0 0 0 0 0 0 
0 0 0 0 0 0 0 0 0 
0 0 0 0 0 0 0 0 0 
0 0 0 0 0 0 0 0 0 
0 0 0 0 0 0 0 0 0 
0 0 0 0 0 0 0 0 0 
0 0 0 0 0 0 0 0 0 
0 0 0 0 0 0 0 0 0 
0 0 0 0 0 0 0 0 0 
0 0 0 0 0 0 0 0 0 
0 0 0 0 0 0 0 0 0 
0 0 0 0 0 0 0 0 0 
0 0 0 0 0 0 0 0 0 
0 0 0 0 0 0 0 0 0 
0 0 0 0 0 0 0 0 0 
0 0 0 0 0 0 0 0 0 
0 0 0 0 0 0 0 0 0 
0 0 0 0 0 0 0 0 0 
0 0 0 0 0 0 0 0 0 
0 0 0 0 0 0 0 0 0 
0 0 0 0 0 0 0 0 0 
0 0 0 0 0 0 0 0 0 
0 0 0 0 0 0 0 0 0 
0 0 0 0 0 0 0 0 0 
0 0 0 0 0 0 0 0 0 
0 0 0 0 0 0 0 0 0 
0 0 0 0 0 0 0 0 0 
0 0 0 0 0 0 0 0 0 
0 0 0 0 0 0 0 0 0 
0 0 0 0 0 0 0 0 0 
0 0 0 0 0 0 0 0 0 
0 0 0 0 0 0 0 0 0 
0 0 0 0 0 0 0 0 0 
0 0 0 0 0 0 0 0 0 
0 0 0 0 0 0 0 0 0 
0 0 0 0 0 0 0 0 0 
0 0 0 0 0 0 0 0 0 
0 0 0 0 0 0 0 0 0 
0 0 0 0 0 0 0 0 0 
0 0 0 0 0 0 0 0 0 
0 0 0 0 0 0 0 0 0 
0 0 0 0 0 0 0 0 0 
0 0 0 0 0 0 0 0 0 
0 0 0 0 0 0 0 0 0 
0 0 0 0 0 0 0 0 0 
0 0 0 0 0 0 0 0 0 
0 0 0 0 0 0 0 0 0 
0 0 0 0 0 0 0 0 0 
0 0 0 0 0 0 0 0 0 
0 0 0 0 0 0 0 0 0 
0 0 0 0 0 0 0 0 0 
0 0 0 0 0 0 0 0 0 
0 0 0 0 0 0 0 0 0 
0 0 0 0 0 0 0 0 0 
0 0 0 0 0 0 0 0 0 
0 0 0 0 0 0 0 0 0 
0 0 0 0 0 0 0 0 0 
0 0 0 0 0 0 0 0 0 
0 0 0 0 0 0 0 0 0 
0 0 0 0 0 0 0 0 0 
0 0 0 0 0 0 0 0 0 
0 0 0 0 0 0 0 0 0 
0 0 0 0 0 0 0 0 0 
0 0 0 0 0 0 0 0 0 
0 0 0 0 0 0 0 0 0 
0 0 0 0 0 0 0 0 0 
0 0 0 0 0 0 0 0 0 
0 0 0 0 0 0 0 0 0 
0 0 0 0 0 0 0 0 0 
0 0 0 0 0 0 0 0 0 
0 0 0 0 0 0 0 0 0 
0 0 0 0 0 0 0 0 0 
0 0 0 0 0 0 0 0 0 
0 0 0 0 0 0 0 0 0 
0 0 0 0 0 0 0 0 0 
0 0 0 0 0 0 0 0 0 
0 0 0 0 0 0 0 0 0 
0 0 0 0 0 0 0 0 0 
0 0 0 0 0 0 0 0 0 
0 0 0 0 0 0 0 0 0 
0 0 0 0 0 0 0 0 0 
0 0 0 0 0 0 0 0 0 
0 0 0 0 0 0 0 0 0 
0 0 0 0 0 0 0 0 0 
0 0 0 0 0 0 0 0 0 
0 0 0 0 0 0 0 0 0 
0 0 0 0 0 0 0 0 0 
0 0 0 0 0 0 0 0 0 
0 0 0 0 0 0 0 0 0 
0 0 0 0 0 0 0 0 0 
0 0 0 0 0 0 0 0 0 
0 0 0 0 0 0 0 0 0 
0 0 0 0 0 0 0 0 0 
0 0 0 0 0 0 0 0 0 
0 0 0 0 0 0 0 0 0 
0 0 0 0 0 0 0 0 0 
0 0 0 0 0 0 0 0 0 
0 0 0 0 0 0 0 0 0 
0 0 0 0 0 0 0 0 0 
0 0 0 0 0 0 0 0 0 
0 0 0 0 0 0 0 0 0 
0 0 0 0 0 0 0 0 0 
0 0 0 0 0 0 0 0 0 
0 0 0 0 0 0 0 0 0 
0 0 0 0 0 0 0 0 0 
0 0 0 0 0 0 0 0 0 
0 0 0 0 0 0 0 0 0 
0 0 0 0 0 0 0 0 0 
0 0 0 0 0 0 0 0 0 
0 0 0 0 0 0 0 0 0 
0 0 0 0 0 0 0 0 0 
0 0 0 0 0 0 0 0 0 
0 0 0 0 0 0 0 0 0 
0 0 0 0 0 0 0 0 0 
0 0 0 0 0 0 0 0 0 
0 0 0 0 0 0 0 0 0 
0 0 0 0 0 0 0 0 0 
0 0 0 0 0 0 0 0 0 
0 0 0 0 0 0 0 0 0 
0 0 0 0 0 0 0 0 0 
0 0 0 0 0 0 0 0 0 
0 0 0 0 0 0 0 0 0 
0 0 0 0 0 0 0 0 0 
0 0 0 0 0 0 0 0 0 
0 0 0 0 0 0 0 0 0 
0 0 0 0 0 0 0 0 0 
0 0 0 0 0 0 0 0 0 
0 0 0 0 0 0 0 0 0 
0 0 0 0 0 0 0 0 0 
0 0 0 0 0 0 0 0 0 
0 0 0 0 0 0 0 0 0 
0 0 0 0 0 0 0 0 0 
0 0 0 0 0 0 0 0 0 
0 0 0 0 0 0 0 0 0 
0 0 0 0 0 0 0 0 0 
0 0 0 0 0 0 0 0 0 
0 0 0 0 0 0 0 0 0 
0 0 0 0 0 0 0 0 0 
0 0 0 0 0 0 0 0 0 
0 0 0 0 0 0 0 0 0 
0 0 0 0 0 0 0 0 0 
0 0 0 0 0 0 0 0 0 
0 0 0 0 0 0 0 0 0 
0 0 0 0 0 0 0 0 0 
0 0 0 0 0 0 0 0 0 
0 0 0 0 0 0 0 0 0 
0 0 0 0 0 0 0 0 0 
0 0 0 0 0 0 0 0 0 
0 0 0 0 0 0 0 0 0 
0 0 0 0 0 0 0 0 0 
0 0 0 0 0 0 0 0 0 
0 0 0 0 0 0 0 0 0 
0 0 0 0 0 0 0 0 0 
0 0 0 0 0 0 0 0 0 
0 0 0 0 0 0 0 0 0 
0 0 0 0 0 0 0 0 0 
0 0 0 0 0 0 0 0 0 
0 0 0 0 0 0 0 0 0 
0 0 0 0 0 0 0 0 0 
0 0 0 0 0 0 0 0 0 
0 0 0 0 0 0 0 0 0 
0 0 0 0 0 0 0 0 0 
0 0 0 0 0 0 0 0 0 
0 0 0 0 0 0 0 0 0 
0 0 0 0 0 0 0 0 0 
0 0 0 0 0 0 0 0 0 
0 0 0 0 0 0 0 0 0 
0 0 0 0 0 0 0 0 0 
0 0 0 0 0 0 0 0 0 
0 0 0 0 0 0 0 0 0 
0 0 0 0 0 0 0 0 0 
0 0 0 0 0 0 0 0 0 
0 0 0 0 0 0 0 0 0 
0 0 0 0 0 0 0 0 0 
0 0 0 0 0 0 0 0 0 
0 0 0 0 0 0 0 0 0 
0 0 0 0 0 0 0 0 0 
0 0 0 0 0 0 0 0 0 
0 0 0 0 0 0 0 0 0 
0 0 0 0 0 0 0 0 0 
0 0 0 0 0 0 0 0 0 
0 0 0 0 0 0 0 0 0 
0 0 0 0 0 0 0 0 0 
0 0 0 0 0 0 0 0 0 
0 0 0 0 0 0 0 0 0 
0 0 0 0 0 0 0 0 0 
0 0 0 0 0 0 0 0 0 
0 0 0 0 0 0 0 0 0 
0 0 0 0 0 0 0 0 0 
0 0 0 0 0 0 0 0 0 
0 0 0 0 0 0 0 0 0 
0 0 0 0 0 0 0 0 0 
0 0 0 0 0 0 0 0 0 
0 0 0 0 0 0 0 0 0 
0 0 0 0 0 0 0 0 0 
0 0 0 0 0 0 0 0 0 
0 0 0 0 0 0 0 0 0 
0 0 0 0 0 0 0 0 0 
0 0 0 0 0 0 0 0 0 
0 0 0 0 0 0 0 0 0 
0 0 0 0 0 0 0 0 0 
0 0 0 0 0 0 0 0 0 
0 0 0 0 0 0 0 0 0 
0 0 0 0 0 0 0 0 0 
0 0 0 0 0 0 0 0 0 
0 0 0 0 0 0 0 0 0 
0 0 0 0 0 0 0 0 0 
0 0 0 0 0 0 0 0 0 
0 0 0 0 0 0 0 0 0 
0 0 0 0 0 0 0 0 0 
0 0 0 0 0 0 0 0 0 
0 0 0 0 0 0 0 0 0 
0 0 0 0 0 0 0 0 0 
0 0 0 0 0 0 0 0 0 
0 0 0 0 0 0 0 0 0 
0 0 0 0 0 0 0 0 0 
0 0 0 0 0 0 0 0 0 
0 0 0 0 0 0 0 0 0 
0 0 0 0 0 0 0 0 0 
0 0 0 0 0 0 0 0 0 
0 0 0 0 0 0 0 0 0 
0 0 0 0 0 0 0 0 0 
0 0 0 0 0 0 0 0 0 
0 0 0 0 0 0 0 0 0 
0 0 0 0 0 0 0 0 0 
0 0 0 0 0 0 0 0 0 
0 0 0 0 0 0 0 0 0 
0 0 0 0 0 0 0 0 0 
0 0 0 0 0 0 0 0 0 
0 0 0 0 0 0 0 0 0 
0 0 0 0 0 0 0 0 0 
0 0 0 0 0 0 0 0 0 
0 0 0 0 0 0 0 0 0 
0 0 0 0 0 0 0 0 0 
0 0 0 0 0 0 0 0 0 
0 0 0 0 0 0 0 0 0 
0 0 0 0 0 0 0 0 0 
0 0 0 0 0 0 0 0 0 
0 0 0 0 0 0 0 0 0 
0 0 0 0 0 0 0 0 0 
0 0 0 0 0 0 0 0 0 
0 0 0 0 0 0 0 0 0 
0 0 0 0 0 0 0 0 0 
0 0 0 0 0 0 0 0 0 
0 0 0 0 0 0 0 0 0 
0 0 0 0 0 0 0 0 0 
0 0 0 0 0 0 0 0 0 
0 0 0 0 0 0 0 0 0 
0 0 0 0 0 0 0 0 0 
0 0 0 0 0 0 0 0 0 
0 0 0 0 0 0 0 0 0 
0 0 0 0 0 0 0 0 0 
0 0 0 0 0 0 0 0 0 
0 0 0 0 0 0 0 0 0 
0 0 0 0 0 0 0 0 0 
0 0 0 0 0 0 0 0 0 
0 0 0 0 0 0 0 0 0 
0 0 0 0 0 0 0 0 0 
0 0 0 0 0 0 0 0 0 
0 0 0 0 0 0 0 0 0 
0 0 0 0 0 0 0 0 0 
0 0 0 0 0 0 0 0 0 
0 0 0 0 0 0 0 0 0 
0 0 0 0 0 0 0 0 0 
0 0 0 0 0 0 0 0 0 
0 0 0 0 0 0 0 0 0 
0 0 0 0 0 0 0 0 0 
0 0 0 0 0 0 0 0 0 
0 0 0 0 0 0 0 0 0 
0 0 0 0 0 0 0 0 0 
0 0 0 0 0 0 0 0 0 
0 0 0 0 0 0 0 0 0 
0 0 0 0 0 0 0 0 0 
0 0 0 0 0 0 0 0 0 
0 0 0 0 0 0 0 0 0 
0 0 0 0 0 0 0 0 0 
0 0 0 0 0 0 0 0 0 
0 0 0 0 0 0 0 0 0 
0 0 0 0 0 0 0 0 0 
0 0 0 0 0 0 0 0 0 
0 0 0 0 0 0 0 0 0 
0 0 0 0 0 0 0 0 0 
0 0 0 0 0 0 0 0 0 
0 0 0 0 0 0 0 0 0 
0 0 0 0 0 0 0 0 0 
0 0 0 0 0 0 0 0 0 
0 0 0 0 0 0 0 0 0 
0 0 0 0 0 0 0 0 0 
0 0 0 0 0 0 0 0 0 
0 0 0 0 0 0 0 0 0 
0 0 0 0 0 0 0 0 0 
0 0 0 0 0 0 0 0 0 
0 0 0 0 0 0 0 0 0 
0 0 0 0 0 0 0 0 0 
0 0 0 0 0 0 0 0 0 
0 0 0 0 0 0 0 0 0 
0 0 0 0 0 0 0 0 0 
0 0 0 0 0 0 0 0 0 
0 0 0 0 0 0 0 0 0 
0 0 0 0 0 0 0 0 0 
0 0 0 0 0 0 0 0 0 
0 0 0 0 0 0 0 0 0 
0 0 0 0 0 0 0 0 0 
0 0 0 0 0 0 0 0 0 
0 0 0 0 0 0 0 0 0 
0 0 0 0 0 0 0 0 0 
0 0 0 0 0 0 0 0 0 
0 0 0 0 0 0 0 0 0 
0 0 0 0 0 0 0 0 0 
0 0 0 0 0 0 0 0 0 
0 0 0 0 0 0 0 0 0 
0 0 0 0 0 0 0 0 0 
0 0 0 0 0 0 0 0 0 
0 0 0 0 0 0 0 0 0 
0 0 0 0 0 0 0 0 0 
0 0 0 0 0 0 0 0 0 
0 0 0 0 0 0 0 0 0 
0 0 0 0 0 0 0 0 0 
0 0 0 0 0 0 0 0 0 
0 0 0 0 0 0 0 0 0 
0 0 0 0 0 0 0 0 0 
0 0 0 0 0 0 0 0 0 
0 0 0 0 0 0 0 0 0 
0 0 0 0 0 0 0 0 0 
0 0 0 0 0 0 0 0 0 
0 0 0 0 0 0 0 0 0 
0 0 0 0 0 0 0 0 0 
0 0 0 0 0 0 0 0 0 
0 0 0 0 0 0 0 0 0 
0 0 0 0 0 0 0 0 0 
0 0 0 0 0 0 0 0 0 
0 0 0 0 0 0 0 0 0 
0 0 0 0 0 0 0 0 0 
0 0 0 0 0 0 0 0 0 
0 0 0 0 0 0 0 0 0 
0 0 0 0 0 0 0 0 0 
0 0 0 0 0 0 0 0 0 
0 0 0 0 0 0 0 0 0 
0 0 0 0 0 0 0 0 0 
0 0 0 0 0 0 0 0 0 
0 0 0 0 0 0 0 0 0 
0 0 0 0 0 0 0 0 0 
0 0 0 0 0 0 0 0 0 
0 0 0 0 0 0 0 0 0 
0 0 0 0 0 0 0 0 0 
0 0 0 0 0 0 0 0 0 
0 0 0 0 0 0 0 0 0 
0 0 0 0 0 0 0 0 0 
0 0 0 0 0 0 0 0 0 
0 0 0 0 0 0 0 0 0 
0 0 0 0 0 0 0 0 0 
0 0 0 0 0 0 0 0 0 
0 0 0 0 0 0 0 0 0 
0 0 0 0 0 0 0 0 0 
0 0 0 0 0 0 0 0 0 
0 0 0 0 0 0 0 0 0 
0 0 0 0 0 0 0 0 0 
0 0 0 0 0 0 0 0 0 
0 0 0 0 0 0 0 0 0 
0 0 0 0 0 0 0 0 0 
0 0 0 0 0 0 0 0 0 
0 0 0 0 0 0 0 0 0 
0 0 0 0 0 0 0 0 0 
0 0 0 0 0 0 0 0 0 
0 0 0 0 0 0 0 0 0 
0 0 0 0 0 0 0 0 0 
0 0 0 0 0 0 0 0 0 
0 0 0 0 0 0 0 0 0 
0 0 0 0 0 0 0 0 0 
0 0 0 0 0 0 0 0 0 
0 0 0 0 0 0 0 0 0 
0 0 0 0 0 0 0 0 0 
0 0 0 0 0 0 0 0 0 
0 0 0 0 0 0 0 0 0 
0 0 0 0 0 0 0 0 0 
0 0 0 0 0 0 0 0 0 
0 0 0 0 0 0 0 0 0 
0 0 0 0 0 0 0 0 0 
0 0 0 0 0 0 0 0 0 
0 0 0 0 0 0 0 0 0 
0 0 0 0 0 0 0 0 0 
0 0 0 0 0 0 0 0 0 
0 0 0 0 0 0 0 0 0 
0 0 0 0 0 0 0 0 0 
0 0 0 0 0 0 0 0 0 
0 0 0 0 0 0 0 0 0 
0 0 0 0 0 0 0 0 0 
0 0 0 0 0 0 0 0 0 
0 0 0 0 0 0 0 0 0 
0 0 0 0 0 0 0 0 0 
0 0 0 0 0 0 0 0 0 
0 0 0 0 0 0 0 0 0 
0 0 0 0 0 0 0 0 0 
0 0 0 0 0 0 0 0 0 
0 0 0 0 0 0 0 0 0 
0 0 0 0 0 0 0 0 0 
0 0 0 0 0 0 0 0 0 
0 0 0 0 0 0 0 0 0 
0 0 0 0 0 0 0 0 0 
0 0 0 0 0 0 0 0 0 
0 0 0 0 0 0 0 0 0 
0 0 0 0 0 0 0 0 0 
0 0 0 0 0 0 0 0 0 
0 0 0 0 0 0 0 0 0 
0 0 0 0 0 0 0 0 0 
0 0 0 0 0 0 0 0 0 
0 0 0 0 0 0 0 0 0 
0 0 0 0 0 0 0 0 0 
0 0 0 0 0 0 0 0 0 
0 0 0 0 0 0 0 0 0 
0 0 0 0 0 0 0 0 0 
0 0 0 0 0 0 0 0 0 
0 0 0 0 0 0 0 0 0 
0 0 0 0 0 0 0 0 0 
0 0 0 0 0 0 0 0 0 
0 0 0 0 0 0 0 0 0 
0 0 0 0 0 0 0 0 0 
0 0 0 0 0 0 0 0 0 
0 0 0 0 0 0 0 0 0 
0 0 0 0 0 0 0 0 0 
0 0 0 0 0 0 0 0 0 
0 0 0 0 0 0 0 0 0 
0 0 0 0 0 0 0 0 0 
0 0 0 0 0 0 0 0 0 
0 0 0 0 0 0 0 0 0 
0 0 0 0 0 0 0 0 0 
0 0 0 0 0 0 0 0 0 
0 0 0 0 0 0 0 0 0 
0 0 0 0 0 0 0 0 0 
0 0 0 0 0 0 0 0 0 
0 0 0 0 0 0 0 0 0 
0 0 0 0 0 0 0 0 0 
0 0 0 0 0 0 0 0 0 
0 0 0 0 0 0 0 0 0 
0 0 0 0 0 0 0 0 0 
0 0 0 0 0 0 0 0 0 
0 0 0 0 0 0 0 0 0 
0 0 0 0 0 0 0 0 0 
0 0 0 0 0 0 0 0 0 
0 0 0 0 0 0 0 0 0 
0 0 0 0 0 0 0 0 0 
0 0 0 0 0 0 0 0 0 
0 0 0 0 0 0 0 0 0 
0 0 0 0 0 0 0 0 0 
0 0 0 0 0 0 0 0 0 
0 0 0 0 0 0 0 0 0 
0 0 0 0 0 0 0 0 0 
0 0 0 0 0 0 0 0 0 
0 0 0 0 0 0 0 0 0 
0 0 0 0 0 0 0 0 0 
0 0 0 0 0 0 0 0 0 
0 0 0 0 0 0 0 0 0 
0 0 0 0 0 0 0 0 0 
0 0 0 0 0 0 0 0 0 
0 0 0 0 0 0 0 0 0 
0 0 0 0 0 0 0 0 0 
0 0 0 0 0 0 0 0 0 
0 0 0 0 0 0 0 0 0 
0 0 0 0 0 0 0 0 0 
0 0 0 0 0 0 0 0 0 
0 0 0 0 0 0 0 0 0 
0 0 0 0 0 0 0 0 0 
0 0 0 0 0 0 0 0 0 
0 0 0 0 0 0 0 0 0 
0 0 0 0 0 0 0 0 0 
0 0 0 0 0 0 0 0 0 
0 0 0 0 0 0 0 0 0 
0 0 0 0 0 0 0 0 0 
0 0 0 0 0 0 0 0 0 
0 0 0 0 0 0 0 0 0 
0 0 0 0 0 0 0 0 0 
0 0 0 0 0 0 0 0 0 
0 0 0 0 0 0 0 0 0 
0 0 0 0 0 0 0 0 0 
0 0 0 0 0 0 0 0 0 
0 0 0 0 0 0 0 0 0 
0 0 0 0 0 0 0 0 0 
0 0 0 0 0 0 0 0 0 
0 0 0 0 0 0 0 0 0 
0 0 0 0 0 0 0 0 0 
0 0 0 0 0 0 0 0 0 
0 0 0 0 0 0 0 0 0 
0 0 0 0 0 0 0 0 0 
0 0 0 0 0 0 0 0 0 
0 0 0 0 0 0 0 0 0 
0 0 0 0 0 0 0 0 0 
0 0 0 0 0 0 0 0 0 
0 0 0 0 0 0 0 0 0 
0 0 0 0 0 0 0 0 0 
0 0 0 0 0 0 0 0 0 
0 0 0 0 0 0 0 0 0 
0 0 0 0 0 0 0 0 0 
0 0 0 0 0 0 0 0 0 
0 0 0 0 0 0 0 0 0 
0 0 0 0 0 0 0 0 0 
0 0 0 0 0 0 0 0 0 
0 0 0 0 0 0 0 0 0 
0 0 0 0 0 0 0 0 0 
0 0 0 0 0 0 0 0 0 
0 0 0 0 0 0 0 0 0 
0 0 0 0 0 0 0 0 0 
0 0 0 0 0 0 0 0 0 
0 0 0 0 0 0 0 0 0 
0 0 0 0 0 0 0 0 0 
0 0 0 0 0 0 0 0 0 
0 0 0 0 0 0 0 0 0 
0 0 0 0 0 0 0 0 0 
0 0 0 0 0 0 0 0 0 
0 0 0 0 0 0 0 0 0 
0 0 0 0 0 0 0 0 0 
0 0 0 0 0 0 0 0 0 
0 0 0 0 0 0 0 0 0 
0 0 0 0 0 0 0 0 0 
0 0 0 0 0 0 0 0 0 
0 0 0 0 0 0 0 0 0 
0 0 0 0 0 0 0 0 0 
0 0 0 0 0 0 0 0 0 
0 0 0 0 0 0 0 0 0 
0 0 0 0 0 0 0 0 0 
0 0 0 0 0 0 0 0 0 
0 0 0 0 0 0 0 0 0 
0 0 0 0 0 0 0 0 0 
0 0 0 0 0 0 0 0 0 
0 0 0 0 0 0 0 0 0 
0 0 0 0 0 0 0 0 0 
0 0 0 0 0 0 0 0 0 
0 0 0 0 0 0 0 0 0 
0 0 0 0 0 0 0 0 0 
0 0 0 0 0 0 0 0 0 
0 0 0 0 0 0 0 0 0 
0 0 0 0 0 0 0 0 0 
0 0 0 0 0 0 0 0 0 
0 0 0 0 0 0 0 0 0 
0 0 0 0 0 0 0 0 0 
0 0 0 0 0 0 0 0 0 
0 0 0 0 0 0 0 0 0 
0 0 0 0 0 0 0 0 0 
0 0 0 0 0 0 0 0 0 
0 0 0 0 0 0 0 0 0 
0 0 0 0 0 0 0 0 0 
0 0 0 0 0 0 0 0 0 
0 0 0 0 0 0 0 0 0 
0 0 0 0 0 0 0 0 0 
0 0 0 0 0 0 0 0 0 
0 0 0 0 0 0 0 0 0 
0 0 0 0 0 0 0 0 0 
0 0 0 0 0 0 0 0 0 
0 0 0 0 0 0 0 0 0 
0 0 0 0 0 0 0 0 0 
0 0 0 0 0 0 0 0 0 
0 0 0 0 0 0 0 0 0 
0 0 0 0 0 0 0 0 0 
0 0 0 0 0 0 0 0 0 
0 0 0 0 0 0 0 0 0 
0 0 0 0 0 0 0 0 0 
0 0 0 0 0 0 0 0 0 
0 0 0 0 0 0 0 0 0 
0 0 0 0 0 0 0 0 0 
0 0 0 0 0 0 0 0 0 
0 0 0 0 0 0 0 0 0 
0 0 0 0 0 0 0 0 0 
0 0 0 0 0 0 0 0 0 
0 0 0 0 0 0 0 0 0 
0 0 0 0 0 0 0 0 0 
0 0 0 0 0 0 0 0 0 
0 0 0 0 0 0 0 0 0 
0 0 0 0 0 0 0 0 0 
0 0 0 0 0 0 0 0 0 
0 0 0 0 0 0 0 0 0 
0 0 0 0 0 0 0 0 0 
0 0 0 0 0 0 0 0 0 
0 0 0 0 0 0 0 0 0 
0 0 0 0 0 0 0 0 0 
0 0 0 0 0 0 0 0 0 
0 0 0 0 0 0 0 0 0 
0 0 0 0 0 0 0 0 0 
0 0 0 0 0 0 0 0 0 
0 0 0 0 0 0 0 0 0 
0 0 0 0 0 0 0 0 0 
0 0 0 0 0 0 0 0 0 
0 0 0 0 0 0 0 0 0 
0 0 0 0 0 0 0 0 0 
0 0 0 0 0 0 0 0 0 
0 0 0 0 0 0 0 0 0 
0 0 0 0 0 0 0 0 0 
0 0 0 0 0 0 0 0 0 
0 0 0 0 0 0 0 0 0 
0 0 0 0 0 0 0 0 0 
0 0 0 0 0 0 0 0 0 
0 0 0 0 0 0 0 0 0 
0 0 0 0 0 0 0 0 0 
0 0 0 0 0 0 0 0 0 
0 0 0 0 0 0 0 0 0 
0 0 0 0 0 0 0 0 0 
0 0 0 0 0 0 0 0 0 
0 0 0 0 0 0 0 0 0 
0 0 0 0 0 0 0 0 0 
0 0 0 0 0 0 0 0 0 
0 0 0 0 0 0 0 0 0 
0 0 0 0 0 0 0 0 0 
0 0 0 0 0 0 0 0 0 
0 0 0 0 0 0 0 0 0 
0 0 0 0 0 0 0 0 0 
0 0 0 0 0 0 0 0 0 
0 0 0 0 0 0 0 0 0 
0 0 0 0 0 0 0 0 0 
0 0 0 0 0 0 0 0 0 
0 0 0 0 0 0 0 0 0 
0 0 0 0 0 0 0 0 0 
0 0 0 0 0 0 0 0 0 
0 0 0 0 0 0 0 0 0 
0 0 0 0 0 0 0 0 0 
0 0 0 0 0 0 0 0 0 
0 0 0 0 0 0 0 0 0 
0 0 0 0 0 0 0 0 0 
0 0 0 0 0 0 0 0 0 
0 0 0 0 0 0 0 0 0 
0 0 0 0 0 0 0 0 0 
0 0 0 0 0 0 0 0 0 
0 0 0 0 0 0 0 0 0 
0 0 0 0 0 0 0 0 0 
0 0 0 0 0 0 0 0 0 
0 0 0 0 0 0 0 0 0 
0 0 0 0 0 0 0 0 0 
0 0 0 0 0 0 0 0 0 
0 0 0 0 0 0 0 0 0 
0 0 0 0 0 0 0 0 0 
0 0 0 0 0 0 0 0 0 
0 0 0 0 0 0 0 0 0 
0 0 0 0 0 0 0 0 0 
0 0 0 0 0 0 0 0 0 
0 0 0 0 0 0 0 0 0 
0 0 0 0 0 0 0 0 0 
0 0 0 0 0 0 0 0 0 
0 0 0 0 0 0 0 0 0 
0 0 0 0 0 0 0 0 0 
0 0 0 0 0 0 0 0 0 
0 0 0 0 0 0 0 0 0 
0 0 0 0 0 0 0 0 0 
0 0 0 0 0 0 0 0 0 
0 0 0 0 0 0 0 0 0 
0 0 0 0 0 0 0 0 0 
0 0 0 0 0 0 0 0 0 
0 0 0 0 0 0 0 0 0 
0 0 0 0 0 0 0 0 0 
0 0 0 0 0 0 0 0 0 
0 0 0 0 0 0 0 0 0 
0 0 0 0 0 0 0 0 0 
0 0 0 0 0 0 0 0 0 
0 0 0 0 0 0 0 0 0 
0 0 0 0 0 0 0 0 0 
0 0 0 0 0 0 0 0 0 
0 0 0 0 0 0 0 0 0 
0 0 0 0 0 0 0 0 0 
0 0 0 0 0 0 0 0 0 
0 0 0 0 0 0 0 0 0 
0 0 0 0 0 0 0 0 0 
0 0 0 0 0 0 0 0 0 
0 0 0 0 0 0 0 0 0 
0 0 0 0 0 0 0 0 0 
0 0 0 0 0 0 0 0 0 
0 0 0 0 0 0 0 0 0 
0 0 0 0 0 0 0 0 0 
0 0 0 0 0 0 0 0 0 
0 0 0 0 0 0 0 0 0 
0 0 0 0 0 0 0 0 0 
0 0 0 0 0 0 0 0 0 
0 0 0 0 0 0 0 0 0 
0 0 0 0 0 0 0 0 0 
0 0 0 0 0 0 0 0 0 
0 0 0 0 0 0 0 0 0 
0 0 0 0 0 0 0 0 0 
0 0 0 0 0 0 0 0 0 
0 0 0 0 0 0 0 0 0 
0 0 0 0 0 0 0 0 0 
0 0 0 0 0 0 0 0 0 
0 0 0 0 0 0 0 0 0 
0 0 0 0 0 0 0 0 0 
0 0 0 0 0 0 0 0 0 
0 0 0 0 0 0 0 0 0 
0 0 0 0 0 0 0 0 0 
0 0 0 0 0 0 0 0 0 
0 0 0 0 0 0 0 0 0 
0 0 0 0 0 0 0 0 0 
0 0 0 0 0 0 0 0 0 
0 0 0 0 0 0 0 0 0 
0 0 0 0 0 0 0 0 0 
0 0 0 0 0 0 0 0 0 
0 0 0 0 0 0 0 0 0 
0 0 0 0 0 0 0 0 0 
0 0 0 0 0 0 0 0 0 
0 0 0 0 0 0 0 0 0 
0 0 0 0 0 0 0 0 0 
0 0 0 0 0 0 0 0 0 
0 0 0 0 0 0 0 0 0 
0 0 0 0 0 0 0 0 0 
0 0 0 0 0 0 0 0 0 
0 0 0 0 0 0 0 0 0 
0 0 0 0 0 0 0 0 0 
0 0 0 0 0 0 0 0 0 
0 0 0 0 0 0 0 0 0 
0 0 0 0 0 0 0 0 0 
0 0 0 0 0 0 0 0 0 
0 0 0 0 0 0 0 0 0 
0 0 0 0 0 0 0 0 0 
0 0 0 0 0 0 0 0 0 
0 0 0 0 0 0 0 0 0 
0 0 0 0 0 0 0 0 0 
0 0 0 0 0 0 0 0 0 
0 0 0 0 0 0 0 0 0 
0 0 0 0 0 0 0 0 0 
0 0 0 0 0 0 0 0 0 
0 0 0 0 0 0 0 0 0 
0 0 0 0 0 0 0 0 0 
0 0 0 0 0 0 0 0 0 
0 0 0 0 0 0 0 0 0 
0 0 0 0 0 0 0 0 0 
0 0 0 0 0 0 0 0 0 
0 0 0 0 0 0 0 0 0 
0 0 0 0 0 0 0 0 0 
0 0 0 0 0 0 0 0 0 
0 0 0 0 0 0 0 0 0 
0 0 0 0 0 0 0 0 0 
0 0 0 0 0 0 0 0 0 
0 0 0 0 0 0 0 0 0 
0 0 0 0 0 0 0 0 0 
0 0 0 0 0 0 0 0 0 
0 0 0 0 0 0 0 0 0 
0 0 0 0 0 0 0 0 0 
0 0 0 0 0 0 0 0 0 
0 0 0 0 0 0 0 0 0 
0 0 0 0 0 0 0 0 0 
0 0 0 0 0 0 0 0 0 
0 0 0 0 0 0 0 0 0 
0 0 0 0 0 0 0 0 0 
0 0 0 0 0 0 0 0 0 
0 0 0 0 0 0 0 0 0 
0 0 0 0 0 0 0 0 0 
0 0 0 0 0 0 0 0 0 
0 0 0 0 0 0 0 0 0 
0 0 0 0 0 0 0 0 0 
0 0 0 0 0 0 0 0 0 
0 0 0 0 0 0 0 0 0 
0 0 0 0 0 0 0 0 0 
0 0 0 0 0 0 0 0 0 
0 0 0 0 0 0 0 0 0 
0 0 0 0 0 0 0 0 0 
0 0 0 0 0 0 0 0 0 
0 0 0 0 0 0 0 0 0 
0 0 0 0 0 0 0 0 0 
0 0 0 0 0 0 0 0 0 
0 0 0 0 0 0 0 0 0 
0 0 0 0 0 0 0 0 0 
0 0 0 0 0 0 0 0 0 
0 0 0 0 0 0 0 0 0 
0 0 0 0 0 0 0 0 0 
0 0 0 0 0 0 0 0 0 
0 0 0 0 0 0 0 0 0 
0 0 0 0 0 0 0 0 0 
0 0 0 0 0 0 0 0 0 
0 0 0 0 0 0 0 0 0 
0 0 0 0 0 0 0 0 0 
0 0 0 0 0 0 0 0 0 
0 0 0 0 0 0 0 0 0 
0 0 0 0 0 0 0 0 0 
0 0 0 0 0 0 0 0 0 
0 0 0 0 0 0 0 0 0 
0 0 0 0 0 0 0 0 0 
0 0 0 0 0 0 0 0 0 
0 0 0 0 0 0 0 0 0 
0 0 0 0 0 0 0 0 0 
0 0 0 0 0 0 0 0 0 
0 0 0 0 0 0 0 0 0 
0 0 0 0 0 0 0 0 0 
0 0 0 0 0 0 0 0 0 
0 0 0 0 0 0 0 0 0 
0 0 0 0 0 0 0 0 0 
0 0 0 0 0 0 0 0 0 
0 0 0 0 0 0 0 0 0 
0 0 0 0 0 0 0 0 0 
0 0 0 0 0 0 0 0 0 
0 0 0 0 0 0 0 0 0 
0 0 0 0 0 0 0 0 0 
0 0 0 0 0 0 0 0 0 
0 0 0 0 0 0 0 0 0 
0 0 0 0 0 0 0 0 0 
0 0 0 0 0 0 0 0 0 
0 0 0 0 0 0 0 0 0 
0 0 0 0 0 0 0 0 0 
0 0 0 0 0 0 0 0 0 
0 0 0 0 0 0 0 0 0 
0 0 0 0 0 0 0 0 0 
0 0 0 0 0 0 0 0 0 
0 0 0 0 0 0 0 0 0 
0 0 0 0 0 0 0 0 0 
0 0 0 0 0 0 0 0 0 
0 0 0 0 0 0 0 0 0 
0 0 0 0 0 0 0 0 0 
0 0 0 0 0 0 0 0 0 
0 0 0 0 0 0 0 0 0 
0 0 0 0 0 0 0 0 0 
0 0 0 0 0 0 0 0 0 
0 0 0 0 0 0 0 0 0 
0 0 0 0 0 0 0 0 0 
0 0 0 0 0 0 0 0 0 
0 0 0 0 0 0 0 0 0 
0 0 0 0 0 0 0 0 0 
0 0 0 0 0 0 0 0 0 
0 0 0 0 0 0 0 0 0 
0 0 0 0 0 0 0 0 0 
0 0 0 0 0 0 0 0 0 
0 0 0 0 0 0 0 0 0 
0 0 0 0 0 0 0 0 0 
0 0 0 0 0 0 0 0 0 
0 0 0 0 0 0 0 0 0 
0 0 0 0 0 0 0 0 0 
0 0 0 0 0 0 0 0 0 
0 0 0 0 0 0 0 0 0 
0 0 0 0 0 0 0 0 0 
0 0 0 0 0 0 0 0 0 
0 0 0 0 0 0 0 0 0 
0 0 0 0 0 0 0 0 0 
0 0 0 0 0 0 0 0 0 
0 0 0 0 0 0 0 0 0 
0 0 0 0 0 0 0 0 0 
0 0 0 0 0 0 0 0 0 
0 0 0 0 0 0 0 0 0 
0 0 0 0 0 0 0 0 0 
0 0 0 0 0 0 0 0 0 
0 0 0 0 0 0 0 0 0 
0 0 0 0 0 0 0 0 0 
0 0 0 0 0 0 0 0 0 
0 0 0 0 0 0 0 0 0 
0 0 0 0 0 0 0 0 0 
0 0 0 0 0 0 0 0 0 
0 0 0 0 0 0 0 0 0 
0 0 0 0 0 0 0 0 0 
0 0 0 0 0 0 0 0 0 
0 0 0 0 0 0 0 0 0 
0 0 0 0 0 0 0 0 0 
0 0 0 0 0 0 0 0 0 
0 0 0 0 0 0 0 0 0 
0 0 0 0 0 0 0 0 0 
0 0 0 0 0 0 0 0 0 
0 0 0 0 0 0 0 0 0 
0 0 0 0 0 0 0 0 0 
0 0 0 0 0 0 0 0 0 
0 0 0 0 0 0 0 0 0 
0 0 0 0 0 0 0 0 0 
0 0 0 0 0 0 0 0 0 
0 0 0 0 0 0 0 0 0 
0 0 0 0 0 0 0 0 0 
0 0 0 0 0 0 0 0 0 
0 0 0 0 0 0 0 0 0 
0 0 0 0 0 0 0 0 0 
0 0 0 0 0 0 0 0 0 
0 0 0 0 0 0 0 0 0 
0 0 0 0 0 0 0 0 0 
0 0 0 0 0 0 0 0 0 
0 0 0 0 0 0 0 0 0 
0 0 0 0 0 0 0 0 0 
0 0 0 0 0 0 0 0 0 
0 0 0 0 0 0 0 0 0 
0 0 0 0 0 0 0 0 0 
0 0 0 0 0 0 0 0 0 
0 0 0 0 0 0 0 0 0 
0 0 0 0 0 0 0 0 0 
0 0 0 0 0 0 0 0 0 
0 0 0 0 0 0 0 0 0 
0 0 0 0 0 0 0 0 0 
0 0 0 0 0 0 0 0 0 
0 0 0 0 0 0 0 0 0 
0 0 0 0 0 0 0 0 0 
0 0 0 0 0 0 0 0 0 
0 0 0 0 0 0 0 0 0 
0 0 0 0 0 0 0 0 0 
0 0 0 0 0 0 0 0 0 
0 0 0 0 0 0 0 0 0 
0 0 0 0 0 0 0 0 0 
0 0 0 0 0 0 0 0 0 
0 0 0 0 0 0 0 0 0 
0 0 0 0 0 0 0 0 0 
0 0 0 0 0 0 0 0 0 
0 0 0 0 0 0 0 0 0 
0 0 0 0 0 0 0 0 0 
0 0 0 0 0 0 0 0 0 
0 0 0 0 0 0 0 0 0 
0 0 0 0 0 0 0 0 0 
0 0 0 0 0 0 0 0 0 
0 0 0 0 0 0 0 0 0 
0 0 0 0 0 0 0 0 0 
0 0 0 0 0 0 0 0 0 
0 0 0 0 0 0 0 0 0 
0 0 0 0 0 0 0 0 0 
0 0 0 0 0 0 0 0 0 
0 0 0 0 0 0 0 0 0 
0 0 0 0 0 0 0 0 0 
0 0 0 0 0 0 0 0 0 
0 0 0 0 0 0 0 0 0 
0 0 0 0 0 0 0 0 0 
0 0 0 0 0 0 0 0 0 
0 0 0 0 0 0 0 0 0 
0 0 0 0 0 0 0 0 0 
0 0 0 0 0 0 0 0 0 
0 0 0 0 0 0 0 0 0 
0 0 0 0 0 0 0 0 0 
0 0 0 0 0 0 0 0 0 
0 0 0 0 0 0 0 0 0 
0 0 0 0 0 0 0 0 0 
0 0 0 0 0 0 0 0 0 
0 0 0 0 0 0 0 0 0 
0 0 0 0 0 0 0 0 0 
0 0 0 0 0 0 0 0 0 
0 0 0 0 0 0 0 0 0 
0 0 0 0 0 0 0 0 0 
0 0 0 0 0 0 0 0 0 
0 0 0 0 0 0 0 0 0 
0 0 0 0 0 0 0 0 0 
0 0 0 0 0 0 0 0 0 
0 0 0 0 0 0 0 0 0 
0 0 0 0 0 0 0 0 0 
0 0 0 0 0 0 0 0 0 
0 0 0 0 0 0 0 0 0 
0 0 0 0 0 0 0 0 0 
0 0 0 0 0 0 0 0 0 
0 0 0 0 0 0 0 0 0 
0 0 0 0 0 0 0 0 0 
0 0 0 0 0 0 0 0 0 
0 0 0 0 0 0 0 0 0 
0 0 0 0 0 0 0 0 0 
0 0 0 0 0 0 0 0 0 
0 0 0 0 0 0 0 0 0 
0 0 0 0 0 0 0 0 0 
0 0 0 0 0 0 0 0 0 
0 0 0 0 0 0 0 0 0 
0 0 0 0 0 0 0 0 0 
0 0 0 0 0 0 0 0 0 
0 0 0 0 0 0 0 0 0 
0 0 0 0 0 0 0 0 0 
0 0 0 0 0 0 0 0 0 
0 0 0 0 0 0 0 0 0 
0 0 0 0 0 0 0 0 0 
0 0 0 0 0 0 0 0 0 
0 0 0 0 0 0 0 0 0 
0 0 0 0 0 0 0 0 0 
0 0 0 0 0 0 0 0 0 
0 0 0 0 0 0 0 0 0 
0 0 0 0 0 0 0 0 0 
0 0 0 0 0 0 0 0 0 
0 0 0 0 0 0 0 0 0 
0 0 0 0 0 0 0 0 0 
0 0 0 0 0 0 0 0 0 
0 0 0 0 0 0 0 0 0 
0 0 0 0 0 0 0 0 0 
0 0 0 0 0 0 0 0 0 
0 0 0 0 0 0 0 0 0 
0 0 0 0 0 0 0 0 0 
0 0 0 0 0 0 0 0 0 
0 0 0 0 0 0 0 0 0 
0 0 0 0 0 0 0 0 0 
0 0 0 0 0 0 0 0 0 
0 0 0 0 0 0 0 0 0 
0 0 0 0 0 0 0 0 0 
0 0 0 0 0 0 0 0 0 
0 0 0 0 0 0 0 0 0 
0 0 0 0 0 0 0 0 0 
0 0 0 0 0 0 0 0 0 
0 0 0 0 0 0 0 0 0 
0 0 0 0 0 0 0 0 0 
0 0 0 0 0 0 0 0 0 
0 0 0 0 0 0 0 0 0 
0 0 0 0 0 0 0 0 0 
0 0 0 0 0 0 0 0 0 
0 0 0 0 0 0 0 0 0 
0 0 0 0 0 0 0 0 0 
0 0 0 0 0 0 0 0 0 
0 0 0 0 0 0 0 0 0 
0 0 0 0 0 0 0 0 0 
0 0 0 0 0 0 0 0 0 
0 0 0 0 0 0 0 0 0 
0 0 0 0 0 0 0 0 0 
0 0 0 0 0 0 0 0 0 
0 0 0 0 0 0 0 0 0 
0 0 0 0 0 0 0 0 0 
0 0 0 0 0 0 0 0 0 
0 0 0 0 0 0 0 0 0 
0 0 0 0 0 0 0 0 0 
0 0 0 0 0 0 0 0 0 
0 0 0 0 0 0 0 0 0 
0 0 0 0 0 0 0 0 0 
0 0 0 0 0 0 0 0 0 
0 0 0 0 0 0 0 0 0 
0 0 0 0 0 0 0 0 0 
0 0 0 0 0 0 0 0 0 
0 0 0 0 0 0 0 0 0 
0 0 0 0 0 0 0 0 0 
0 0 0 0 0 0 0 0 0 
0 0 0 0 0 0 0 0 0 
0 0 0 0 0 0 0 0 0 
0 0 0 0 0 0 0 0 0 
0 0 0 0 0 0 0 0 0 
0 0 0 0 0 0 0 0 0 
0 0 0 0 0 0 0 0 0 
0 0 0 0 0 0 0 0 0 
0 0 0 0 0 0 0 0 0 
0 0 0 0 0 0 0 0 0 
0 0 0 0 0 0 0 0 0 
0 0 0 0 0 0 0 0 0 
0 0 0 0 0 0 0 0 0 
0 0 0 0 0 0 0 0 0 
0 0 0 0 0 0 0 0 0 
0 0 0 0 0 0 0 0 0 
0 0 0 0 0 0 0 0 0 
0 0 0 0 0 0 0 0 0 
0 0 0 0 0 0 0 0 0 
0 0 0 0 0 0 0 0 0 
0 0 0 0 0 0 0 0 0 
0 0 0 0 0 0 0 0 0 
0 0 0 0 0 0 0 0 0 
0 0 0 0 0 0 0 0 0 
0 0 0 0 0 0 0 0 0 
0 0 0 0 0 0 0 0 0 
0 0 0 0 0 0 0 0 0 
0 0 0 0 0 0 0 0 0 
0 0 0 0 0 0 0 0 0 
0 0 0 0 0 0 0 0 0 
0 0 0 0 0 0 0 0 0 
0 0 0 0 0 0 0 0 0 
0 0 0 0 0 0 0 0 0 
0 0 0 0 0 0 0 0 0 
0 0 0 0 0 0 0 0 0 
0 0 0 0 0 0 0 0 0 
0 0 0 0 0 0 0 0 0 
0 0 0 0 0 0 0 0 0 
0 0 0 0 0 0 0 0 0 
0 0 0 0 0 0 0 0 0 
0 0 0 0 0 0 0 0 0 
0 0 0 0 0 0 0 0 0 
0 0 0 0 0 0 0 0 0 
0 0 0 0 0 0 0 0 0 
0 0 0 0 0 0 0 0 0 
0 0 0 0 0 0 0 0 0 
0 0 0 0 0 0 0 0 0 
0 0 0 0 0 0 0 0 0 
0 0 0 0 0 0 0 0 0 
0 0 0 0 0 0 0 0 0 
0 0 0 0 0 0 0 0 0 
0 0 0 0 0 0 0 0 0 
0 0 0 0 0 0 0 0 0 
0 0 0 0 0 0 0 0 0 
0 0 0 0 0 0 0 0 0 
0 0 0 0 0 0 0 0 0 
0 0 0 0 0 0 0 0 0 
0 0 0 0 0 0 0 0 0 
0 0 0 0 0 0 0 0 0 
0 0 0 0 0 0 0 0 0 
0 0 0 0 0 0 0 0 0 
0 0 0 0 0 0 0 0 0 
0 0 0 0 0 0 0 0 0 
0 0 0 0 0 0 0 0 0 
0 0 0 0 0 0 0 0 0 
0 0 0 0 0 0 0 0 0 
0 0 0 0 0 0 0 0 0 
0 0 0 0 0 0 0 0 0 
0 0 0 0 0 0 0 0 0 
0 0 0 0 0 0 0 0 0 
0 0 0 0 0 0 0 0 0 
0 0 0 0 0 0 0 0 0 
0 0 0 0 0 0 0 0 0 
0 0 0 0 0 0 0 0 0 
0 0 0 0 0 0 0 0 0 
0 0 0 0 0 0 0 0 0 
0 0 0 0 0 0 0 0 0 
0 0 0 0 0 0 0 0 0 
0 0 0 0 0 0 0 0 0 
0 0 0 0 0 0 0 0 0 
0 0 0 0 0 0 0 0 0 
0 0 0 0 0 0 0 0 0 
0 0 0 0 0 0 0 0 0 
0 0 0 0 0 0 0 0 0 
0 0 0 0 0 0 0 0 0 
0 0 0 0 0 0 0 0 0 
0 0 0 0 0 0 0 0 0 
0 0 0 0 0 0 0 0 0 
0 0 0 0 0 0 0 0 0 
0 0 0 0 0 0 0 0 0 
0 0 0 0 0 0 0 0 0 
0 0 0 0 0 0 0 0 0 
0 0 0 0 0 0 0 0 0 
0 0 0 0 0 0 0 0 0 
0 0 0 0 0 0 0 0 0 
0 0 0 0 0 0 0 0 0 
0 0 0 0 0 0 0 0 0 
0 0 0 0 0 0 0 0 0 
0 0 0 0 0 0 0 0 0 
0 0 0 0 0 0 0 0 0 
0 0 0 0 0 0 0 0 0 
0 0 0 0 0 0 0 0 0 
0 0 0 0 0 0 0 0 0 
0 0 0 0 0 0 0 0 0 
0 0 0 0 0 0 0 0 0 
0 0 0 0 0 0 0 0 0 
0 0 0 0 0 0 0 0 0 
0 0 0 0 0 0 0 0 0 
0 0 0 0 0 0 0 0 0 
0 0 0 0 0 0 0 0 0 
0 0 0 0 0 0 0 0 0 
0 0 0 0 0 0 0 0 0 
0 0 0 0 0 0 0 0 0 
0 0 0 0 0 0 0 0 0 
0 0 0 0 0 0 0 0 0 
0 0 0 0 0 0 0 0 0 
0 0 0 0 0 0 0 0 0 
0 0 0 0 0 0 0 0 0 
0 0 0 0 0 0 0 0 0 
0 0 0 0 0 0 0 0 0 
0 0 0 0 0 0 0 0 0 
0 0 0 0 0 0 0 0 0 
0 0 0 0 0 0 0 0 0 
0 0 0 0 0 0 0 0 0 
0 0 0 0 0 0 0 0 0 
0 0 0 0 0 0 0 0 0 
0 0 0 0 0 0 0 0 0 
0 0 0 0 0 0 0 0 0 
0 0 0 0 0 0 0 0 0 
0 0 0 0 0 0 0 0 0 
0 0 0 0 0 0 0 0 0 
0 0 0 0 0 0 0 0 0 
0 0 0 0 0 0 0 0 0 
0 0 0 0 0 0 0 0 0 
0 0 0 0 0 0 0 0 0 
0 0 0 0 0 0 0 0 0 
0 0 0 0 0 0 0 0 0 
0 0 0 0 0 0 0 0 0 
0 0 0 0 0 0 0 0 0 
0 0 0 0 0 0 0 0 0 
0 0 0 0 0 0 0 0 0 
0 0 0 0 0 0 0 0 0 
0 0 0 0 0 0 0 0 0 
0 0 0 0 0 0 0 0 0 
0 0 0 0 0 0 0 0 0 
0 0 0 0 0 0 0 0 0 
0 0 0 0 0 0 0 0 0 
0 0 0 0 0 0 0 0 0 
0 0 0 0 0 0 0 0 0 
0 0 0 0 0 0 0 0 0 
0 0 0 0 0 0 0 0 0 
0 0 0 0 0 0 0 0 0 
0 0 0 0 0 0 0 0 0 
0 0 0 0 0 0 0 0 0 
0 0 0 0 0 0 0 0 0 
0 0 0 0 0 0 0 0 0 
0 0 0 0 0 0 0 0 0 
0 0 0 0 0 0 0 0 0 
0 0 0 0 0 0 0 0 0 
0 0 0 0 0 0 0 0 0 
0 0 0 0 0 0 0 0 0 
0 0 0 0 0 0 0 0 0 
0 0 0 0 0 0 0 0 0 
0 0 0 0 0 0 0 0 0 
0 0 0 0 0 0 0 0 0 
0 0 0 0 0 0 0 0 0 
0 0 0 0 0 0 0 0 0 
0 0 0 0 0 0 0 0 0 
0 0 0 0 0 0 0 0 0 
0 0 0 0 0 0 0 0 0 
0 0 0 0 0 0 0 0 0 
0 0 0 0 0 0 0 0 0 
0 0 0 0 0 0 0 0 0 
0 0 0 0 0 0 0 0 0 
0 0 0 0 0 0 0 0 0 
0 0 0 0 0 0 0 0 0 
0 0 0 0 0 0 0 0 0 
0 0 0 0 0 0 0 0 0 
0 0 0 0 0 0 0 0 0 
0 0 0 0 0 0 0 0 0 
0 0 0 0 0 0 0 0 0 
0 0 0 0 0 0 0 0 0 
0 0 0 0 0 0 0 0 0 
0 0 0 0 0 0 0 0 0 
0 0 0 0 0 0 0 0 0 
0 0 0 0 0 0 0 0 0 
0 0 0 0 0 0 0 0 0 
0 0 0 0 0 0 0 0 0 
0 0 0 0 0 0 0 0 0 
0 0 0 0 0 0 0 0 0 
0 0 0 0 0 0 0 0 0 
0 0 0 0 0 0 0 0 0 
0 0 0 0 0 0 0 0 0 
0 0 0 0 0 0 0 0 0 
0 0 0 0 0 0 0 0 0 
0 0 0 0 0 0 0 0 0 
0 0 0 0 0 0 0 0 0 
0 0 0 0 0 0 0 0 0 
0 0 0 0 0 0 0 0 0 
0 0 0 0 0 0 0 0 0 
0 0 0 0 0 0 0 0 0 
0 0 0 0 0 0 0 0 0 
0 0 0 0 0 0 0 0 0 
0 0 0 0 0 0 0 0 0 
0 0 0 0 0 0 0 0 0 
0 0 0 0 0 0 0 0 0 
0 0 0 0 0 0 0 0 0 
0 0 0 0 0 0 0 0 0 
0 0 0 0 0 0 0 0 0 
0 0 0 0 0 0 0 0 0 
0 0 0 0 0 0 0 0 0 
0 0 0 0 0 0 0 0 0 
0 0 0 0 0 0 0 0 0 
0 0 0 0 0 0 0 0 0 
0 0 0 0 0 0 0 0 0 
0 0 0 0 0 0 0 0 0 
0 0 0 0 0 0 0 0 0 
0 0 0 0 0 0 0 0 0 
0 0 0 0 0 0 0 0 0 
0 0 0 0 0 0 0 0 0 
0 0 0 0 0 0 0 0 0 
0 0 0 0 0 0 0 0 0 
0 0 0 0 0 0 0 0 0 
0 0 0 0 0 0 0 0 0 
0 0 0 0 0 0 0 0 0 
0 0 0 0 0 0 0 0 0 
0 0 0 0 0 0 0 0 0 
0 0 0 0 0 0 0 0 0 
0 0 0 0 0 0 0 0 0 
0 0 0 0 0 0 0 0 0 
0 0 0 0 0 0 0 0 0 
0 0 0 0 0 0 0 0 0 
0 0 0 0 0 0 0 0 0 
0 0 0 0 0 0 0 0 0 
0 0 0 0 0 0 0 0 0 
0 0 0 0 0 0 0 0 0 
0 0 0 0 0 0 0 0 0 
0 0 0 0 0 0 0 0 0 
0 0 0 0 0 0 0 0 0 
0 0 0 0 0 0 0 0 0 
0 0 0 0 0 0 0 0 0 
0 0 0 0 0 0 0 0 0 
0 0 0 0 0 0 0 0 0 
0 0 0 0 0 0 0 0 0 
0 0 0 0 0 0 0 0 0 
0 0 0 0 0 0 0 0 0 
0 0 0 0 0 0 0 0 0 
0 0 0 0 0 0 0 0 0 
0 0 0 0 0 0 0 0 0 
0 0 0 0 0 0 0 0 0 
0 0 0 0 0 0 0 0 0 
0 0 0 0 0 0 0 0 0 
0 0 0 0 0 0 0 0 0 
0 0 0 0 0 0 0 0 0 
0 0 0 0 0 0 0 0 0 
0 0 0 0 0 0 0 0 0 
0 0 0 0 0 0 0 0 0 
0 0 0 0 0 0 0 0 0 
0 0 0 0 0 0 0 0 0 
0 0 0 0 0 0 0 0 0 
0 0 0 0 0 0 0 0 0 
0 0 0 0 0 0 0 0 0 
0 0 0 0 0 0 0 0 0 
0 0 0 0 0 0 0 0 0 
0 0 0 0 0 0 0 0 0 
0 0 0 0 0 0 0 0 0 
0 0 0 0 0 0 0 0 0 
0 0 0 0 0 0 0 0 0 
0 0 0 0 0 0 0 0 0 
0 0 0 0 0 0 0 0 0 
0 0 0 0 0 0 0 0 0 
0 0 0 0 0 0 0 0 0 
0 0 0 0 0 0 0 0 0 
0 0 0 0 0 0 0 0 0 
0 0 0 0 0 0 0 0 0 
0 0 0 0 0 0 0 0 0 
0 0 0 0 0 0 0 0 0 
0 0 0 0 0 0 0 0 0 
0 0 0 0 0 0 0 0 0 
0 0 0 0 0 0 0 0 0 
0 0 0 0 0 0 0 0 0 
0 0 0 0 0 0 0 0 0 
0 0 0 0 0 0 0 0 0 
0 0 0 0 0 0 0 0 0 
0 0 0 0 0 0 0 0 0 
0 0 0 0 0 0 0 0 0 
0 0 0 0 0 0 0 0 0 
0 0 0 0 0 0 0 0 0 
0 0 0 0 0 0 0 0 0 
0 0 0 0 0 0 0 0 0 
0 0 0 0 0 0 0 0 0 
0 0 0 0 0 0 0 0 0 
0 0 0 0 0 0 0 0 0 
0 0 0 0 0 0 0 0 0 
0 0 0 0 0 0 0 0 0 
0 0 0 0 0 0 0 0 0 
0 0 0 0 0 0 0 0 0 
0 0 0 0 0 0 0 0 0 
0 0 0 0 0 0 0 0 0 
0 0 0 0 0 0 0 0 0 
0 0 0 0 0 0 0 0 0 
0 0 0 0 0 0 0 0 0 
0 0 0 0 0 0 0 0 0 
0 0 0 0 0 0 0 0 0 
0 0 0 0 0 0 0 0 0 
0 0 0 0 0 0 0 0 0 
0 0 0 0 0 0 0 0 0 
0 0 0 0 0 0 0 0 0 
0 0 0 0 0 0 0 0 0 
0 0 0 0 0 0 0 0 0 
0 0 0 0 0 0 0 0 0 
0 0 0 0 0 0 0 0 0 
0 0 0 0 0 0 0 0 0 
0 0 0 0 0 0 0 0 0 
0 0 0 0 0 0 0 0 0 
0 0 0 0 0 0 0 0 0 
0 0 0 0 0 0 0 0 0 
0 0 0 0 0 0 0 0 0 
0 0 0 0 0 0 0 0 0 
0 0 0 0 0 0 0 0 0 
0 0 0 0 0 0 0 0 0 
0 0 0 0 0 0 0 0 0 
0 0 0 0 0 0 0 0 0 
0 0 0 0 0 0 0 0 0 
0 0 0 0 0 0 0 0 0 
0 0 0 0 0 0 0 0 0 
0 0 0 0 0 0 0 0 0 
0 0 0 0 0 0 0 0 0 
0 0 0 0 0 0 0 0 0 
0 0 0 0 0 0 0 0 0 
0 0 0 0 0 0 0 0 0 
0 0 0 0 0 0 0 0 0 
0 0 0 0 0 0 0 0 0 
0 0 0 0 0 0 0 0 0 
0 0 0 0 0 0 0 0 0 
0 0 0 0 0 0 0 0 0 
0 0 0 0 0 0 0 0 0 
0 0 0 0 0 0 0 0 0 
0 0 0 0 0 0 0 0 0 
0 0 0 0 0 0 0 0 0 
0 0 0 0 0 0 0 0 0 
0 0 0 0 0 0 0 0 0 
0 0 0 0 0 0 0 0 0 
0 0 0 0 0 0 0 0 0 
0 0 0 0 0 0 0 0 0 
0 0 0 0 0 0 0 0 0 
0 0 0 0 0 0 0 0 0 
0 0 0 0 0 0 0 0 0 
0 0 0 0 0 0 0 0 0 
0 0 0 0 0 0 0 0 0 
0 0 0 0 0 0 0 0 0 
0 0 0 0 0 0 0 0 0 
0 0 0 0 0 0 0 0 0 
0 0 0 0 0 0 0 0 0 
0 0 0 0 0 0 0 0 0 
0 0 0 0 0 0 0 0 0 
0 0 0 0 0 0 0 0 0 
0 0 0 0 0 0 0 0 0 
0 0 0 0 0 0 0 0 0 
0 0 0 0 0 0 0 0 0 
0 0 0 0 0 0 0 0 0 
0 0 0 0 0 0 0 0 0 
0 0 0 0 0 0 0 0 0 
0 0 0 0 0 0 0 0 0 
0 0 0 0 0 0 0 0 0 
0 0 0 0 0 0 0 0 0 
0 0 0 0 0 0 0 0 0 
0 0 0 0 0 0 0 0 0 
0 0 0 0 0 0 0 0 0 
0 0 0 0 0 0 0 0 0 
0 0 0 0 0 0 0 0 0 
0 0 0 0 0 0 0 0 0 
0 0 0 0 0 0 0 0 0 
0 0 0 0 0 0 0 0 0 
0 0 0 0 0 0 0 0 0 
0 0 0 0 0 0 0 0 0 
0 0 0 0 0 0 0 0 0 
0 0 0 0 0 0 0 0 0 
0 0 0 0 0 0 0 0 0 
0 0 0 0 0 0 0 0 0 
0 0 0 0 0 0 0 0 0 
0 0 0 0 0 0 0 0 0 
0 0 0 0 0 0 0 0 0 
0 0 0 0 0 0 0 0 0 
0 0 0 0 0 0 0 0 0 
0 0 0 0 0 0 0 0 0 
0 0 0 0 0 0 0 0 0 
0 0 0 0 0 0 0 0 0 
0 0 0 0 0 0 0 0 0 
0 0 0 0 0 0 0 0 0 
0 0 0 0 0 0 0 0 0 
0 0 0 0 0 0 0 0 0 
0 0 0 0 0 0 0 0 0 
0 0 0 0 0 0 0 0 0 
0 0 0 0 0 0 0 0 0 
0 0 0 0 0 0 0 0 0 
0 0 0 0 0 0 0 0 0 
0 0 0 0 0 0 0 0 0 
0 0 0 0 0 0 0 0 0 
0 0 0 0 0 0 0 0 0 
0 0 0 0 0 0 0 0 0 
0 0 0 0 0 0 0 0 0 
0 0 0 0 0 0 0 0 0 
0 0 0 0 0 0 0 0 0 
0 0 0 0 0 0 0 0 0 
0 0 0 0 0 0 0 0 0 
0 0 0 0 0 0 0 0 0 
0 0 0 0 0 0 0 0 0 
0 0 0 0 0 0 0 0 0 
0 0 0 0 0 0 0 0 0 
0 0 0 0 0 0 0 0 0 
0 0 0 0 0 0 0 0 0 
0 0 0 0 0 0 0 0 0 
0 0 0 0 0 0 0 0 0 
0 0 0 0 0 0 0 0 0 
0 0 0 0 0 0 0 0 0 
0 0 0 0 0 0 0 0 0 
0 0 0 0 0 0 0 0 0 
0 0 0 0 0 0 0 0 0 
0 0 0 0 0 0 0 0 0 
0 0 0 0 0 0 0 0 0 
0 0 0 0 0 0 0 0 0 
0 0 0 0 0 0 0 0 0 
0 0 0 0 0 0 0 0 0 
0 0 0 0 0 0 0 0 0 
0 0 0 0 0 0 0 0 0 
0 0 0 0 0 0 0 0 0 
0 0 0 0 0 0 0 0 0 
0 0 0 0 0 0 0 0 0 
0 0 0 0 0 0 0 0 0 
0 0 0 0 0 0 0 0 0 
0 0 0 0 0 0 0 0 0 
0 0 0 0 0 0 0 0 0 
0 0 0 0 0 0 0 0 0 
0 0 0 0 0 0 0 0 0 
0 0 0 0 0 0 0 0 0 
0 0 0 0 0 0 0 0 0 
0 0 0 0 0 0 0 0 0 
0 0 0 0 0 0 0 0 0 
0 0 0 0 0 0 0 0 0 
0 0 0 0 0 0 0 0 0 
0 0 0 0 0 0 0 0 0 
0 0 0 0 0 0 0 0 0 
0 0 0 0 0 0 0 0 0 
0 0 0 0 0 0 0 0 0 
0 0 0 0 0 0 0 0 0 
0 0 0 0 0 0 0 0 0 
0 0 0 0 0 0 0 0 0 
0 0 0 0 0 0 0 0 0 
0 0 0 0 0 0 0 0 0 
0 0 0 0 0 0 0 0 0 
0 0 0 0 0 0 0 0 0 
0 0 0 0 0 0 0 0 0 
0 0 0 0 0 0 0 0 0 
0 0 0 0 0 0 0 0 0 
0 0 0 0 0 0 0 0 0 
0 0 0 0 0 0 0 0 0 
0 0 0 0 0 0 0 0 0 
0 0 0 0 0 0 0 0 0 
0 0 0 0 0 0 0 0 0 
0 0 0 0 0 0 0 0 0 
0 0 0 0 0 0 0 0 0 
0 0 0 0 0 0 0 0 0 
0 0 0 0 0 0 0 0 0 
0 0 0 0 0 0 0 0 0 
0 0 0 0 0 0 0 0 0 
0 0 0 0 0 0 0 0 0 
0 0 0 0 0 0 0 0 0 
0 0 0 0 0 0 0 0 0 
0 0 0 0 0 0 0 0 0 
0 0 0 0 0 0 0 0 0 
0 0 0 0 0 0 0 0 0 
0 0 0 0 0 0 0 0 0 
0 0 0 0 0 0 0 0 0 
0 0 0 0 0 0 0 0 0 
0 0 0 0 0 0 0 0 0 
0 0 0 0 0 0 0 0 0 
0 0 0 0 0 0 0 0 0 
0 0 0 0 0 0 0 0 0 
0 0 0 0 0 0 0 0 0 
0 0 0 0 0 0 0 0 0 
0 0 0 0 0 0 0 0 0 
0 0 0 0 0 0 0 0 0 
0 0 0 0 0 0 0 0 0 
0 0 0 0 0 0 0 0 0 
0 0 0 0 0 0 0 0 0 
0 0 0 0 0 0 0 0 0 
0 0 0 0 0 0 0 0 0 
0 0 0 0 0 0 0 0 0 
0 0 0 0 0 0 0 0 0 
0 0 0 0 0 0 0 0 0 
0 0 0 0 0 0 0 0 0 
0 0 0 0 0 0 0 0 0 
0 0 0 0 0 0 0 0 0 
0 0 0 0 0 0 0 0 0 
0 0 0 0 0 0 0 0 0 
0 0 0 0 0 0 0 0 0 
0 0 0 0 0 0 0 0 0 
0 0 0 0 0 0 0 0 0 
0 0 0 0 0 0 0 0 0 
0 0 0 0 0 0 0 0 0 
0 0 0 0 0 0 0 0 0 
0 0 0 0 0 0 0 0 0 
0 0 0 0 0 0 0 0 0 
0 0 0 0 0 0 0 0 0 
0 0 0 0 0 0 0 0 0 
0 0 0 0 0 0 0 0 0 
0 0 0 0 0 0 0 0 0 
0 0 0 0 0 0 0 0 0 
0 0 0 0 0 0 0 0 0 
0 0 0 0 0 0 0 0 0 
0 0 0 0 0 0 0 0 0 
0 0 0 0 0 0 0 0 0 
0 0 0 0 0 0 0 0 0 
0 0 0 0 0 0 0 0 0 
0 0 0 0 0 0 0 0 0 
0 0 0 0 0 0 0 0 0 
0 0 0 0 0 0 0 0 0 
0 0 0 0 0 0 0 0 0 
0 0 0 0 0 0 0 0 0 
0 0 0 0 0 0 0 0 0 
0 0 0 0 0 0 0 0 0 
0 0 0 0 0 0 0 0 0 
0 0 0 0 0 0 0 0 0 
0 0 0 0 0 0 0 0 0 
0 0 0 0 0 0 0 0 0 
0 0 0 0 0 0 0 0 0 
0 0 0 0 0 0 0 0 0 
0 0 0 0 0 0 0 0 0 
0 0 0 0 0 0 0 0 0 
0 0 0 0 0 0 0 0 0 
0 0 0 0 0 0 0 0 0 
0 0 0 0 0 0 0 0 0 
0 0 0 0 0 0 0 0 0 
0 0 0 0 0 0 0 0 0 
0 0 0 0 0 0 0 0 0 
0 0 0 0 0 0 0 0 0 
0 0 0 0 0 0 0 0 0 
0 0 0 0 0 0 0 0 0 
0 0 0 0 0 0 0 0 0 
0 0 0 0 0 0 0 0 0 
0 0 0 0 0 0 0 0 0 
0 0 0 0 0 0 0 0 0 
0 0 0 0 0 0 0 0 0 
0 0 0 0 0 0 0 0 0 
0 0 0 0 0 0 0 0 0 
0 0 0 0 0 0 0 0 0 
0 0 0 0 0 0 0 0 0 
0 0 0 0 0 0 0 0 0 
0 0 0 0 0 0 0 0 0 
0 0 0 0 0 0 0 0 0 
0 0 0 0 0 0 0 0 0 
0 0 0 0 0 0 0 0 0 
0 0 0 0 0 0 0 0 0 
0 0 0 0 0 0 0 0 0 
0 0 0 0 0 0 0 0 0 
0 0 0 0 0 0 0 0 0 
0 0 0 0 0 0 0 0 0 
0 0 0 0 0 0 0 0 0 
0 0 0 0 0 0 0 0 0 
0 0 0 0 0 0 0 0 0 
0 0 0 0 0 0 0 0 0 
0 0 0 0 0 0 0 0 0 
0 0 0 0 0 0 0 0 0 
0 0 0 0 0 0 0 0 0 
0 0 0 0 0 0 0 0 0 
0 0 0 0 0 0 0 0 0 
0 0 0 0 0 0 0 0 0 
0 0 0 0 0 0 0 0 0 
0 0 0 0 0 0 0 0 0 
0 0 0 0 0 0 0 0 0 
0 0 0 0 0 0 0 0 0 
0 0 0 0 0 0 0 0 0 
0 0 0 0 0 0 0 0 0 
0 0 0 0 0 0 0 0 0 
0 0 0 0 0 0 0 0 0 
0 0 0 0 0 0 0 0 0 
0 0 0 0 0 0 0 0 0 
0 0 0 0 0 0 0 0 0 
0 0 0 0 0 0 0 0 0 
0 0 0 0 0 0 0 0 0 
0 0 0 0 0 0 0 0 0 
0 0 0 0 0 0 0 0 0 
0 0 0 0 0 0 0 0 0 
0 0 0 0 0 0 0 0 0 
0 0 0 0 0 0 0 0 0 
0 0 0 0 0 0 0 0 0 
0 0 0 0 0 0 0 0 0 
0 0 0 0 0 0 0 0 0 
0 0 0 0 0 0 0 0 0 
0 0 0 0 0 0 0 0 0 
0 0 0 0 0 0 0 0 0 
0 0 0 0 0 0 0 0 0 
0 0 0 0 0 0 0 0 0 
0 0 0 0 0 0 0 0 0 
0 0 0 0 0 0 0 0 0 
0 0 0 0 0 0 0 0 0 
0 0 0 0 0 0 0 0 0 
0 0 0 0 0 0 0 0 0 
0 0 0 0 0 0 0 0 0 
0 0 0 0 0 0 0 0 0 
0 0 0 0 0 0 0 0 0 
0 0 0 0 0 0 0 0 0 
0 0 0 0 0 0 0 0 0 
0 0 0 0 0 0 0 0 0 
0 0 0 0 0 0 0 0 0 
0 0 0 0 0 0 0 0 0 
0 0 0 0 0 0 0 0 0 
0 0 0 0 0 0 0 0 0 
0 0 0 0 0 0 0 0 0 
0 0 0 0 0 0 0 0 0 
0 0 0 0 0 0 0 0 0 
0 0 0 0 0 0 0 0 0 
0 0 0 0 0 0 0 0 0 
0 0 0 0 0 0 0 0 0 
0 0 0 0 0 0 0 0 0 
0 0 0 0 0 0 0 0 0 
0 0 0 0 0 0 0 0 0 
0 0 0 0 0 0 0 0 0 
0 0 0 0 0 0 0 0 0 
0 0 0 0 0 0 0 0 0 
0 0 0 0 0 0 0 0 0 
0 0 0 0 0 0 0 0 0 
0 0 0 0 0 0 0 0 0 
0 0 0 0 0 0 0 0 0 
0 0 0 0 0 0 0 0 0 
0 0 0 0 0 0 0 0 0 
0 0 0 0 0 0 0 0 0 
0 0 0 0 0 0 0 0 0 
0 0 0 0 0 0 0 0 0 
0 0 0 0 0 0 0 0 0 
0 0 0 0 0 0 0 0 0 
0 0 0 0 0 0 0 0 0 
0 0 0 0 0 0 0 0 0 
0 0 0 0 0 0 0 0 0 
0 0 0 0 0 0 0 0 0 
0 0 0 0 0 0 0 0 0 
0 0 0 0 0 0 0 0 0 
0 0 0 0 0 0 0 0 0 
0 0 0 0 0 0 0 0 0 
0 0 0 0 0 0 0 0 0 
0 0 0 0 0 0 0 0 0 
0 0 0 0 0 0 0 0 0 
0 0 0 0 0 0 0 0 0 
0 0 0 0 0 0 0 0 0 
0 0 0 0 0 0 0 0 0 
0 0 0 0 0 0 0 0 0 
0 0 0 0 0 0 0 0 0 
0 0 0 0 0 0 0 0 0 
0 0 0 0 0 0 0 0 0 
0 0 0 0 0 0 0 0 0 
0 0 0 0 0 0 0 0 0 
0 0 0 0 0 0 0 0 0 
0 0 0 0 0 0 0 0 0 
0 0 0 0 0 0 0 0 0 
0 0 0 0 0 0 0 0 0 
0 0 0 0 0 0 0 0 0 
0 0 0 0 0 0 0 0 0 
0 0 0 0 0 0 0 0 0 
0 0 0 0 0 0 0 0 0 
0 0 0 0 0 0 0 0 0 
0 0 0 0 0 0 0 0 0 
0 0 0 0 0 0 0 0 0 
0 0 0 0 0 0 0 0 0 
0 0 0 0 0 0 0 0 0 
0 0 0 0 0 0 0 0 0 
0 0 0 0 0 0 0 0 0 
0 0 0 0 0 0 0 0 0 
0 0 0 0 0 0 0 0 0 
0 0 0 0 0 0 0 0 0 
0 0 0 0 0 0 0 0 0 
0 0 0 0 0 0 0 0 0 
0 0 0 0 0 0 0 0 0 
0 0 0 0 0 0 0 0 0 
0 0 0 0 0 0 0 0 0 
0 0 0 0 0 0 0 0 0 
0 0 0 0 0 0 0 0 0 
0 0 0 0 0 0 0 0 0 
0 0 0 0 0 0 0 0 0 
0 0 0 0 0 0 0 0 0 
0 0 0 0 0 0 0 0 0 
0 0 0 0 0 0 0 0 0 
0 0 0 0 0 0 0 0 0 
0 0 0 0 0 0 0 0 0 
0 0 0 0 0 0 0 0 0 
0 0 0 0 0 0 0 0 0 
0 0 0 0 0 0 0 0 0 
0 0 0 0 0 0 0 0 0 
0 0 0 0 0 0 0 0 0 
0 0 0 0 0 0 0 0 0 
0 0 0 0 0 0 0 0 0 
0 0 0 0 0 0 0 0 0 
0 0 0 0 0 0 0 0 0 
0 0 0 0 0 0 0 0 0 
0 0 0 0 0 0 0 0 0 
0 0 0 0 0 0 0 0 0 
0 0 0 0 0 0 0 0 0 
0 0 0 0 0 0 0 0 0 
0 0 0 0 0 0 0 0 0 
0 0 0 0 0 0 0 0 0 
0 0 0 0 0 0 0 0 0 
0 0 0 0 0 0 0 0 0 
0 0 0 0 0 0 0 0 0 
0 0 0 0 0 0 0 0 0 
0 0 0 0 0 0 0 0 0 
0 0 0 0 0 0 0 0 0 
0 0 0 0 0 0 0 0 0 
0 0 0 0 0 0 0 0 0 
0 0 0 0 0 0 0 0 0 
0 0 0 0 0 0 0 0 0 
0 0 0 0 0 0 0 0 0 
0 0 0 0 0 0 0 0 0 
0 0 0 0 0 0 0 0 0 
0 0 0 0 0 0 0 0 0 
0 0 0 0 0 0 0 0 0 
0 0 0 0 0 0 0 0 0 
0 0 0 0 0 0 0 0 0 
0 0 0 0 0 0 0 0 0 
0 0 0 0 0 0 0 0 0 
0 0 0 0 0 0 0 0 0 
0 0 0 0 0 0 0 0 0 
0 0 0 0 0 0 0 0 0 
0 0 0 0 0 0 0 0 0 
0 0 0 0 0 0 0 0 0 
0 0 0 0 0 0 0 0 0 
0 0 0 0 0 0 0 0 0 
0 0 0 0 0 0 0 0 0 
0 0 0 0 0 0 0 0 0 
0 0 0 0 0 0 0 0 0 
0 0 0 0 0 0 0 0 0 
0 0 0 0 0 0 0 0 0 
0 0 0 0 0 0 0 0 0 
0 0 0 0 0 0 0 0 0 
0 0 0 0 0 0 0 0 0 
0 0 0 0 0 0 0 0 0 
0 0 0 0 0 0 0 0 0 
0 0 0 0 0 0 0 0 0 
0 0 0 0 0 0 0 0 0 
0 0 0 0 0 0 0 0 0 
0 0 0 0 0 0 0 0 0 
0 0 0 0 0 0 0 0 0 
0 0 0 0 0 0 0 0 0 
0 0 0 0 0 0 0 0 0 
0 0 0 0 0 0 0 0 0 
0 0 0 0 0 0 0 0 0 
0 0 0 0 0 0 0 0 0 
0 0 0 0 0 0 0 0 0 
0 0 0 0 0 0 0 0 0 
0 0 0 0 0 0 0 0 0 
0 0 0 0 0 0 0 0 0 
0 0 0 0 0 0 0 0 0 
0 0 0 0 0 0 0 0 0 
0 0 0 0 0 0 0 0 0 
0 0 0 0 0 0 0 0 0 
0 0 0 0 0 0 0 0 0 
0 0 0 0 0 0 0 0 0 
0 0 0 0 0 0 0 0 0 
0 0 0 0 0 0 0 0 0 
0 0 0 0 0 0 0 0 0 
0 0 0 0 0 0 0 0 0 
0 0 0 0 0 0 0 0 0 
0 0 0 0 0 0 0 0 0 
0 0 0 0 0 0 0 0 0 
0 0 0 0 0 0 0 0 0 
0 0 0 0 0 0 0 0 0 
0 0 0 0 0 0 0 0 0 
0 0 0 0 0 0 0 0 0 
0 0 0 0 0 0 0 0 0 
0 0 0 0 0 0 0 0 0 
0 0 0 0 0 0 0 0 0 
0 0 0 0 0 0 0 0 0 
0 0 0 0 0 0 0 0 0 
0 0 0 0 0 0 0 0 0 
0 0 0 0 0 0 0 0 0 
0 0 0 0 0 0 0 0 0 
0 0 0 0 0 0 0 0 0 
0 0 0 0 0 0 0 0 0 
0 0 0 0 0 0 0 0 0 
0 0 0 0 0 0 0 0 0 
0 0 0 0 0 0 0 0 0 
0 0 0 0 0 0 0 0 0 
0 0 0 0 0 0 0 0 0 
0 0 0 0 0 0 0 0 0 
0 0 0 0 0 0 0 0 0 
0 0 0 0 0 0 0 0 0 
0 0 0 0 0 0 0 0 0 
0 0 0 0 0 0 0 0 0 
0 0 0 0 0 0 0 0 0 
0 0 0 0 0 0 0 0 0 
0 0 0 0 0 0 0 0 0 
0 0 0 0 0 0 0 0 0 
0 0 0 0 0 0 0 0 0 
0 0 0 0 0 0 0 0 0 
0 0 0 0 0 0 0 0 0 
0 0 0 0 0 0 0 0 0 
0 0 0 0 0 0 0 0 0 
0 0 0 0 0 0 0 0 0 
0 0 0 0 0 0 0 0 0 
0 0 0 0 0 0 0 0 0 
0 0 0 0 0 0 0 0 0 
0 0 0 0 0 0 0 0 0 
0 0 0 0 0 0 0 0 0 
0 0 0 0 0 0 0 0 0 
0 0 0 0 0 0 0 0 0 
0 0 0 0 0 0 0 0 0 
0 0 0 0 0 0 0 0 0 
0 0 0 0 0 0 0 0 0 
0 0 0 0 0 0 0 0 0 
0 0 0 0 0 0 0 0 0 
0 0 0 0 0 0 0 0 0 
0 0 0 0 0 0 0 0 0 
0 0 0 0 0 0 0 0 0 
0 0 0 0 0 0 0 0 0 
0 0 0 0 0 0 0 0 0 
0 0 0 0 0 0 0 0 0 
0 0 0 0 0 0 0 0 0 
0 0 0 0 0 0 0 0 0 
0 0 0 0 0 0 0 0 0 
0 0 0 0 0 0 0 0 0 
0 0 0 0 0 0 0 0 0 
0 0 0 0 0 0 0 0 0 
0 0 0 0 0 0 0 0 0 
0 0 0 0 0 0 0 0 0 
0 0 0 0 0 0 0 0 0 
0 0 0 0 0 0 0 0 0 
0 0 0 0 0 0 0 0 0 
0 0 0 0 0 0 0 0 0 
0 0 0 0 0 0 0 0 0 
0 0 0 0 0 0 0 0 0 
0 0 0 0 0 0 0 0 0 
0 0 0 0 0 0 0 0 0 
0 0 0 0 0 0 0 0 0 
0 0 0 0 0 0 0 0 0 
0 0 0 0 0 0 0 0 0 
0 0 0 0 0 0 0 0 0 
0 0 0 0 0 0 0 0 0 
0 0 0 0 0 0 0 0 0 
0 0 0 0 0 0 0 0 0 
0 0 0 0 0 0 0 0 0 
0 0 0 0 0 0 0 0 0 
0 0 0 0 0 0 0 0 0 
0 0 0 0 0 0 0 0 0 
0 0 0 0 0 0 0 0 0 
0 0 0 0 0 0 0 0 0 
0 0 0 0 0 0 0 0 0 
0 0 0 0 0 0 0 0 0 
0 0 0 0 0 0 0 0 0 
0 0 0 0 0 0 0 0 0 
0 0 0 0 0 0 0 0 0 
0 0 0 0 0 0 0 0 0 
0 0 0 0 0 0 0 0 0 
0 0 0 0 0 0 0 0 0 
0 0 0 0 0 0 0 0 0 
0 0 0 0 0 0 0 0 0 
0 0 0 0 0 0 0 0 0 
0 0 0 0 0 0 0 0 0 
0 0 0 0 0 0 0 0 0 
0 0 0 0 0 0 0 0 0 
0 0 0 0 0 0 0 0 0 
0 0 0 0 0 0 0 0 0 
0 0 0 0 0 0 0 0 0 
0 0 0 0 0 0 0 0 0 
0 0 0 0 0 0 0 0 0 
0 0 0 0 0 0 0 0 0 
0 0 0 0 0 0 0 0 0 
0 0 0 0 0 0 0 0 0 
0 0 0 0 0 0 0 0 0 
0 0 0 0 0 0 0 0 0 
0 0 0 0 0 0 0 0 0 
0 0 0 0 0 0 0 0 0 
0 0 0 0 0 0 0 0 0 
0 0 0 0 0 0 0 0 0 
0 0 0 0 0 0 0 0 0 
0 0 0 0 0 0 0 0 0 
0 0 0 0 0 0 0 0 0 
0 0 0 0 0 0 0 0 0 
0 0 0 0 0 0 0 0 0 
0 0 0 0 0 0 0 0 0 
0 0 0 0 0 0 0 0 0 
0 0 0 0 0 0 0 0 0 
0 0 0 0 0 0 0 0 0 
0 0 0 0 0 0 0 0 0 
0 0 0 0 0 0 0 0 0 
0 0 0 0 0 0 0 0 0 
0 0 0 0 0 0 0 0 0 
0 0 0 0 0 0 0 0 0 
0 0 0 0 0 0 0 0 0 
0 0 0 0 0 0 0 0 0 
0 0 0 0 0 0 0 0 0 
0 0 0 0 0 0 0 0 0 
0 0 0 0 0 0 0 0 0 
0 0 0 0 0 0 0 0 0 
0 0 0 0 0 0 0 0 0 
0 0 0 0 0 0 0 0 0 
0 0 0 0 0 0 0 0 0 
0 0 0 0 0 0 0 0 0 
0 0 0 0 0 0 0 0 0 
0 0 0 0 0 0 0 0 0 
0 0 0 0 0 0 0 0 0 
0 0 0 0 0 0 0 0 0 
0 0 0 0 0 0 0 0 0 
0 0 0 0 0 0 0 0 0 
0 0 0 0 0 0 0 0 0 
0 0 0 0 0 0 0 0 0 
0 0 0 0 0 0 0 0 0 
0 0 0 0 0 0 0 0 0 
0 0 0 0 0 0 0 0 0 
0 0 0 0 0 0 0 0 0 
0 0 0 0 0 0 0 0 0 
0 0 0 0 0 0 0 0 0 
0 0 0 0 0 0 0 0 0 
0 0 0 0 0 0 0 0 0 
0 0 0 0 0 0 0 0 0 
0 0 0 0 0 0 0 0 0 
0 0 0 0 0 0 0 0 0 
0 0 0 0 0 0 0 0 0 
0 0 0 0 0 0 0 0 0 
0 0 0 0 0 0 0 0 0 
0 0 0 0 0 0 0 0 0 
0 0 0 0 0 0 0 0 0 
0 0 0 0 0 0 0 0 0 
0 0 0 0 0 0 0 0 0 
0 0 0 0 0 0 0 0 0 
0 0 0 0 0 0 0 0 0 
0 0 0 0 0 0 0 0 0 
0 0 0 0 0 0 0 0 0 
0 0 0 0 0 0 0 0 0 
0 0 0 0 0 0 0 0 0 
0 0 0 0 0 0 0 0 0 
0 0 0 0 0 0 0 0 0 
0 0 0 0 0 0 0 0 0 
0 0 0 0 0 0 0 0 0 
0 0 0 0 0 0 0 0 0 
0 0 0 0 0 0 0 0 0 
0 0 0 0 0 0 0 0 0 
0 0 0 0 0 0 0 0 0 
0 0 0 0 0 0 0 0 0 
0 0 0 0 0 0 0 0 0 
0 0 0 0 0 0 0 0 0 
0 0 0 0 0 0 0 0 0 
0 0 0 0 0 0 0 0 0 
0 0 0 0 0 0 0 0 0 
0 0 0 0 0 0 0 0 0 
0 0 0 0 0 0 0 0 0 
0 0 0 0 0 0 0 0 0 
0 0 0 0 0 0 0 0 0 
0 0 0 0 0 0 0 0 0 
0 0 0 0 0 0 0 0 0 
0 0 0 0 0 0 0 0 0 
0 0 0 0 0 0 0 0 0 
0 0 0 0 0 0 0 0 0 
0 0 0 0 0 0 0 0 0 
0 0 0 0 0 0 0 0 0 
0 0 0 0 0 0 0 0 0 
0 0 0 0 0 0 0 0 0 
0 0 0 0 0 0 0 0 0 
0 0 0 0 0 0 0 0 0 
0 0 0 0 0 0 0 0 0 
0 0 0 0 0 0 0 0 0 
0 0 0 0 0 0 0 0 0 
0 0 0 0 0 0 0 0 0 
0 0 0 0 0 0 0 0 0 
0 0 0 0 0 0 0 0 0 
0 0 0 0 0 0 0 0 0 
0 0 0 0 0 0 0 0 0 
0 0 0 0 0 0 0 0 0 
0 0 0 0 0 0 0 0 0 
0 0 0 0 0 0 0 0 0 
0 0 0 0 0 0 0 0 0 
0 0 0 0 0 0 0 0 0 
0 0 0 0 0 0 0 0 0 
0 0 0 0 0 0 0 0 0 
0 0 0 0 0 0 0 0 0 
0 0 0 0 0 0 0 0 0 
0 0 0 0 0 0 0 0 0 
0 0 0 0 0 0 0 0 0 
0 0 0 0 0 0 0 0 0 
0 0 0 0 0 0 0 0 0 
0 0 0 0 0 0 0 0 0 
0 0 0 0 0 0 0 0 0 
0 0 0 0 0 0 0 0 0 
0 0 0 0 0 0 0 0 0 
0 0 0 0 0 0 0 0 0 
0 0 0 0 0 0 0 0 0 
0 0 0 0 0 0 0 0 0 
0 0 0 0 0 0 0 0 0 
0 0 0 0 0 0 0 0 0 
0 0 0 0 0 0 0 0 0 
0 0 0 0 0 0 0 0 0 
0 0 0 0 0 0 0 0 0 
0 0 0 0 0 0 0 0 0 
0 0 0 0 0 0 0 0 0 
0 0 0 0 0 0 0 0 0 
0 0 0 0 0 0 0 0 0 
0 0 0 0 0 0 0 0 0 
0 0 0 0 0 0 0 0 0 
0 0 0 0 0 0 0 0 0 
0 0 0 0 0 0 0 0 0 
0 0 0 0 0 0 0 0 0 
0 0 0 0 0 0 0 0 0 
0 0 0 0 0 0 0 0 0 
0 0 0 0 0 0 0 0 0 
0 0 0 0 0 0 0 0 0 
0 0 0 0 0 0 0 0 0 
0 0 0 0 0 0 0 0 0 
0 0 0 0 0 0 0 0 0 
0 0 0 0 0 0 0 0 0 
0 0 0 0 0 0 0 0 0 
0 0 0 0 0 0 0 0 0 
0 0 0 0 0 0 0 0 0 
0 0 0 0 0 0 0 0 0 
0 0 0 0 0 0 0 0 0 
0 0 0 0 0 0 0 0 0 
0 0 0 0 0 0 0 0 0 
0 0 0 0 0 0 0 0 0 
0 0 0 0 0 0 0 0 0 
0 0 0 0 0 0 0 0 0 
0 0 0 0 0 0 0 0 0 
0 0 0 0 0 0 0 0 0 
0 0 0 0 0 0 0 0 0 
0 0 0 0 0 0 0 0 0 
0 0 0 0 0 0 0 0 0 
0 0 0 0 0 0 0 0 0 
0 0 0 0 0 0 0 0 0 
0 0 0 0 0 0 0 0 0 
0 0 0 0 0 0 0 0 0 
0 0 0 0 0 0 0 0 0 
0 0 0 0 0 0 0 0 0 
0 0 0 0 0 0 0 0 0 
0 0 0 0 0 0 0 0 0 
0 0 0 0 0 0 0 0 0 
0 0 0 0 0 0 0 0 0 
0 0 0 0 0 0 0 0 0 
0 0 0 0 0 0 0 0 0 
0 0 0 0 0 0 0 0 0 
0 0 0 0 0 0 0 0 0 
0 0 0 0 0 0 0 0 0 
0 0 0 0 0 0 0 0 0 
0 0 0 0 0 0 0 0 0 
0 0 0 0 0 0 0 0 0 
0 0 0 0 0 0 0 0 0 
0 0 0 0 0 0 0 0 0 
0 0 0 0 0 0 0 0 0 
0 0 0 0 0 0 0 0 0 
0 0 0 0 0 0 0 0 0 
0 0 0 0 0 0 0 0 0 
0 0 0 0 0 0 0 0 0 
0 0 0 0 0 0 0 0 0 
0 0 0 0 0 0 0 0 0 
0 0 0 0 0 0 0 0 0 
0 0 0 0 0 0 0 0 0 
0 0 0 0 0 0 0 0 0 
0 0 0 0 0 0 0 0 0 
0 0 0 0 0 0 0 0 0 
0 0 0 0 0 0 0 0 0 
0 0 0 0 0 0 0 0 0 
0 0 0 0 0 0 0 0 0 
0 0 0 0 0 0 0 0 0 
0 0 0 0 0 0 0 0 0 
0 0 0 0 0 0 0 0 0 
0 0 0 0 0 0 0 0 0 
0 0 0 0 0 0 0 0 0 
0 0 0 0 0 0 0 0 0 
0 0 0 0 0 0 0 0 0 
0 0 0 0 0 0 0 0 0 
0 0 0 0 0 0 0 0 0 
0 0 0 0 0 0 0 0 0 
0 0 0 0 0 0 0 0 0 
0 0 0 0 0 0 0 0 0 
0 0 0 0 0 0 0 0 0 
0 0 0 0 0 0 0 0 0 
0 0 0 0 0 0 0 0 0 
0 0 0 0 0 0 0 0 0 
0 0 0 0 0 0 0 0 0 
0 0 0 0 0 0 0 0 0 
0 0 0 0 0 0 0 0 0 
0 0 0 0 0 0 0 0 0 
0 0 0 0 0 0 0 0 0 
0 0 0 0 0 0 0 0 0 
0 0 0 0 0 0 0 0 0 
0 0 0 0 0 0 0 0 0 
0 0 0 0 0 0 0 0 0 
0 0 0 0 0 0 0 0 0 
0 0 0 0 0 0 0 0 0 
0 0 0 0 0 0 0 0 0 
0 0 0 0 0 0 0 0 0 
0 0 0 0 0 0 0 0 0 
0 0 0 0 0 0 0 0 0 
0 0 0 0 0 0 0 0 0 
0 0 0 0 0 0 0 0 0 
0 0 0 0 0 0 0 0 0 
0 0 0 0 0 0 0 0 0 
0 0 0 0 0 0 0 0 0 
0 0 0 0 0 0 0 0 0 
0 0 0 0 0 0 0 0 0 
0 0 0 0 0 0 0 0 0 
0 0 0 0 0 0 0 0 0 
0 0 0 0 0 0 0 0 0 
0 0 0 0 0 0 0 0 0 
0 0 0 0 0 0 0 0 0 
0 0 0 0 0 0 0 0 0 
0 0 0 0 0 0 0 0 0 
0 0 0 0 0 0 0 0 0 
0 0 0 0 0 0 0 0 0 
0 0 0 0 0 0 0 0 0 
0 0 0 0 0 0 0 0 0 
0 0 0 0 0 0 0 0 0 
0 0 0 0 0 0 0 0 0 
0 0 0 0 0 0 0 0 0 
0 0 0 0 0 0 0 0 0 
0 0 0 0 0 0 0 0 0 
0 0 0 0 0 0 0 0 0 
0 0 0 0 0 0 0 0 0 
0 0 0 0 0 0 0 0 0 
0 0 0 0 0 0 0 0 0 
0 0 0 0 0 0 0 0 0 
0 0 0 0 0 0 0 0 0 
0 0 0 0 0 0 0 0 0 
0 0 0 0 0 0 0 0 0 
0 0 0 0 0 0 0 0 0 
0 0 0 0 0 0 0 0 0 
0 0 0 0 0 0 0 0 0 
0 0 0 0 0 0 0 0 0 
0 0 0 0 0 0 0 0 0 
0 0 0 0 0 0 0 0 0 
0 0 0 0 0 0 0 0 0 
0 0 0 0 0 0 0 0 0 
0 0 0 0 0 0 0 0 0 
0 0 0 0 0 0 0 0 0 
0 0 0 0 0 0 0 0 0 
0 0 0 0 0 0 0 0 0 
0 0 0 0 0 0 0 0 0 
0 0 0 0 0 0 0 0 0 
0 0 0 0 0 0 0 0 0 
0 0 0 0 0 0 0 0 0 
0 0 0 0 0 0 0 0 0 
0 0 0 0 0 0 0 0 0 
0 0 0 0 0 0 0 0 0 
0 0 0 0 0 0 0 0 0 
0 0 0 0 0 0 0 0 0 
0 0 0 0 0 0 0 0 0 
0 0 0 0 0 0 0 0 0 
0 0 0 0 0 0 0 0 0 
0 0 0 0 0 0 0 0 0 
0 0 0 0 0 0 0 0 0 
0 0 0 0 0 0 0 0 0 
0 0 0 0 0 0 0 0 0 
0 0 0 0 0 0 0 0 0 
0 0 0 0 0 0 0 0 0 
0 0 0 0 0 0 0 0 0 
0 0 0 0 0 0 0 0 0 
0 0 0 0 0 0 0 0 0 
0 0 0 0 0 0 0 0 0 
0 0 0 0 0 0 0 0 0 
0 0 0 0 0 0 0 0 0 
0 0 0 0 0 0 0 0 0 
0 0 0 0 0 0 0 0 0 
0 0 0 0 0 0 0 0 0 
0 0 0 0 0 0 0 0 0 
0 0 0 0 0 0 0 0 0 
0 0 0 0 0 0 0 0 0 
0 0 0 0 0 0 0 0 0 
0 0 0 0 0 0 0 0 0 
0 0 0 0 0 0 0 0 0 
0 0 0 0 0 0 0 0 0 
0 0 0 0 0 0 0 0 0 
0 0 0 0 0 0 0 0 0 
0 0 0 0 0 0 0 0 0 
0 0 0 0 0 0 0 0 0 
0 0 0 0 0 0 0 0 0 
0 0 0 0 0 0 0 0 0 
0 0 0 0 0 0 0 0 0 
0 0 0 0 0 0 0 0 0 
0 0 0 0 0 0 0 0 0 
0 0 0 0 0 0 0 0 0 
0 0 0 0 0 0 0 0 0 
0 0 0 0 0 0 0 0 0 
0 0 0 0 0 0 0 0 0 
0 0 0 0 0 0 0 0 0 
0 0 0 0 0 0 0 0 0 
0 0 0 0 0 0 0 0 0 
0 0 0 0 0 0 0 0 0 
0 0 0 0 0 0 0 0 0 
0 0 0 0 0 0 0 0 0 
0 0 0 0 0 0 0 0 0 
0 0 0 0 0 0 0 0 0 
0 0 0 0 0 0 0 0 0 
0 0 0 0 0 0 0 0 0 
0 0 0 0 0 0 0 0 0 
0 0 0 0 0 0 0 0 0 
0 0 0 0 0 0 0 0 0 
0 0 0 0 0 0 0 0 0 
0 0 0 0 0 0 0 0 0 
0 0 0 0 0 0 0 0 0 
0 0 0 0 0 0 0 0 0 
0 0 0 0 0 0 0 0 0 
0 0 0 0 0 0 0 0 0 
0 0 0 0 0 0 0 0 0 
0 0 0 0 0 0 0 0 0 
0 0 0 0 0 0 0 0 0 
0 0 0 0 0 0 0 0 0 
0 0 0 0 0 0 0 0 0 
0 0 0 0 0 0 0 0 0 
0 0 0 0 0 0 0 0 0 
0 0 0 0 0 0 0 0 0 
0 0 0 0 0 0 0 0 0 
0 0 0 0 0 0 0 0 0 
0 0 0 0 0 0 0 0 0 
0 0 0 0 0 0 0 0 0 
0 0 0 0 0 0 0 0 0 
0 0 0 0 0 0 0 0 0 
0 0 0 0 0 0 0 0 0 
0 0 0 0 0 0 0 0 0 
0 0 0 0 0 0 0 0 0 
0 0 0 0 0 0 0 0 0 
0 0 0 0 0 0 0 0 0 
0 0 0 0 0 0 0 0 0 
0 0 0 0 0 0 0 0 0 
0 0 0 0 0 0 0 0 0 
0 0 0 0 0 0 0 0 0 
0 0 0 0 0 0 0 0 0 
0 0 0 0 0 0 0 0 0 
0 0 0 0 0 0 0 0 0 
0 0 0 0 0 0 0 0 0 
0 0 0 0 0 0 0 0 0 
0 0 0 0 0 0 0 0 0 
0 0 0 0 0 0 0 0 0 
0 0 0 0 0 0 0 0 0 
0 0 0 0 0 0 0 0 0 
0 0 0 0 0 0 0 0 0 
0 0 0 0 0 0 0 0 0 
0 0 0 0 0 0 0 0 0 
0 0 0 0 0 0 0 0 0 
0 0 0 0 0 0 0 0 0 
0 0 0 0 0 0 0 0 0 
0 0 0 0 0 0 0 0 0 
0 0 0 0 0 0 0 0 0 
0 0 0 0 0 0 0 0 0 
0 0 0 0 0 0 0 0 0 
0 0 0 0 0 0 0 0 0 
0 0 0 0 0 0 0 0 0 
0 0 0 0 0 0 0 0 0 
0 0 0 0 0 0 0 0 0 
0 0 0 0 0 0 0 0 0 
0 0 0 0 0 0 0 0 0 
0 0 0 0 0 0 0 0 0 
0 0 0 0 0 0 0 0 0 
0 0 0 0 0 0 0 0 0 
0 0 0 0 0 0 0 0 0 
0 0 0 0 0 0 0 0 0 
0 0 0 0 0 0 0 0 0 
0 0 0 0 0 0 0 0 0 
0 0 0 0 0 0 0 0 0 
0 0 0 0 0 0 0 0 0 
0 0 0 0 0 0 0 0 0 
0 0 0 0 0 0 0 0 0 
0 0 0 0 0 0 0 0 0 
0 0 0 0 0 0 0 0 0 
0 0 0 0 0 0 0 0 0 
0 0 0 0 0 0 0 0 0 
0 0 0 0 0 0 0 0 0 
0 0 0 0 0 0 0 0 0 
0 0 0 0 0 0 0 0 0 
0 0 0 0 0 0 0 0 0 
0 0 0 0 0 0 0 0 0 
0 0 0 0 0 0 0 0 0 
0 0 0 0 0 0 0 0 0 
0 0 0 0 0 0 0 0 0 
0 0 0 0 0 0 0 0 0 
0 0 0 0 0 0 0 0 0 
0 0 0 0 0 0 0 0 0 
0 0 0 0 0 0 0 0 0 
0 0 0 0 0 0 0 0 0 
0 0 0 0 0 0 0 0 0 
0 0 0 0 0 0 0 0 0 
0 0 0 0 0 0 0 0 0 
0 0 0 0 0 0 0 0 0 
0 0 0 0 0 0 0 0 0 
0 0 0 0 0 0 0 0 0 
0 0 0 0 0 0 0 0 0 
0 0 0 0 0 0 0 0 0 
0 0 0 0 0 0 0 0 0 
0 0 0 0 0 0 0 0 0 
0 0 0 0 0 0 0 0 0 
0 0 0 0 0 0 0 0 0 
0 0 0 0 0 0 0 0 0 
0 0 0 0 0 0 0 0 0 
0 0 0 0 0 0 0 0 0 
0 0 0 0 0 0 0 0 0 
0 0 0 0 0 0 0 0 0 
0 0 0 0 0 0 0 0 0 
0 0 0 0 0 0 0 0 0 
0 0 0 0 0 0 0 0 0 
0 0 0 0 0 0 0 0 0 
0 0 0 0 0 0 0 0 0 
0 0 0 0 0 0 0 0 0 
0 0 0 0 0 0 0 0 0 
0 0 0 0 0 0 0 0 0 
0 0 0 0 0 0 0 0 0 
0 0 0 0 0 0 0 0 0 
0 0 0 0 0 0 0 0 0 
0 0 0 0 0 0 0 0 0 
0 0 0 0 0 0 0 0 0 
0 0 0 0 0 0 0 0 0 
0 0 0 0 0 0 0 0 0 
0 0 0 0 0 0 0 0 0 
0 0 0 0 0 0 0 0 0 
0 0 0 0 0 0 0 0 0 
0 0 0 0 0 0 0 0 0 
0 0 0 0 0 0 0 0 0 
0 0 0 0 0 0 0 0 0 
0 0 0 0 0 0 0 0 0 
0 0 0 0 0 0 0 0 0 
0 0 0 0 0 0 0 0 0 
0 0 0 0 0 0 0 0 0 
0 0 0 0 0 0 0 0 0 
0 0 0 0 0 0 0 0 0 
0 0 0 0 0 0 0 0 0 
0 0 0 0 0 0 0 0 0 
0 0 0 0 0 0 0 0 0 
0 0 0 0 0 0 0 0 0 
0 0 0 0 0 0 0 0 0 
0 0 0 0 0 0 0 0 0 
0 0 0 0 0 0 0 0 0 
0 0 0 0 0 0 0 0 0 
0 0 0 0 0 0 0 0 0 
0 0 0 0 0 0 0 0 0 
0 0 0 0 0 0 0 0 0 
0 0 0 0 0 0 0 0 0 
0 0 0 0 0 0 0 0 0 
0 0 0 0 0 0 0 0 0 
0 0 0 0 0 0 0 0 0 
0 0 0 0 0 0 0 0 0 
0 0 0 0 0 0 0 0 0 
0 0 0 0 0 0 0 0 0 
0 0 0 0 0 0 0 0 0 
0 0 0 0 0 0 0 0 0 
0 0 0 0 0 0 0 0 0 
0 0 0 0 0 0 0 0 0 
0 0 0 0 0 0 0 0 0 
0 0 0 0 0 0 0 0 0 
0 0 0 0 0 0 0 0 0 
0 0 0 0 0 0 0 0 0 
0 0 0 0 0 0 0 0 0 
0 0 0 0 0 0 0 0 0 
0 0 0 0 0 0 0 0 0 
0 0 0 0 0 0 0 0 0 
0 0 0 0 0 0 0 0 0 
0 0 0 0 0 0 0 0 0 
0 0 0 0 0 0 0 0 0 
0 0 0 0 0 0 0 0 0 
0 0 0 0 0 0 0 0 0 
0 0 0 0 0 0 0 0 0 
0 0 0 0 0 0 0 0 0 
0 0 0 0 0 0 0 0 0 
0 0 0 0 0 0 0 0 0 
0 0 0 0 0 0 0 0 0 
0 0 0 0 0 0 0 0 0 
0 0 0 0 0 0 0 0 0 
0 0 0 0 0 0 0 0 0 
0 0 0 0 0 0 0 0 0 
0 0 0 0 0 0 0 0 0 
0 0 0 0 0 0 0 0 0 
0 0 0 0 0 0 0 0 0 
0 0 0 0 0 0 0 0 0 
0 0 0 0 0 0 0 0 0 
0 0 0 0 0 0 0 0 0 
0 0 0 0 0 0 0 0 0 
0 0 0 0 0 0 0 0 0 
0 0 0 0 0 0 0 0 0 
0 0 0 0 0 0 0 0 0 
0 0 0 0 0 0 0 0 0 
0 0 0 0 0 0 0 0 0 
0 0 0 0 0 0 0 0 0 
0 0 0 0 0 0 0 0 0 
0 0 0 0 0 0 0 0 0 
0 0 0 0 0 0 0 0 0 
0 0 0 0 0 0 0 0 0 
0 0 0 0 0 0 0 0 0 
0 0 0 0 0 0 0 0 0 
0 0 0 0 0 0 0 0 0 
0 0 0 0 0 0 0 0 0 
0 0 0 0 0 0 0 0 0 
0 0 0 0 0 0 0 0 0 
0 0 0 0 0 0 0 0 0 
0 0 0 0 0 0 0 0 0 
0 0 0 0 0 0 0 0 0 
0 0 0 0 0 0 0 0 0 
0 0 0 0 0 0 0 0 0 
0 0 0 0 0 0 0 0 0 
0 0 0 0 0 0 0 0 0 
0 0 0 0 0 0 0 0 0 
0 0 0 0 0 0 0 0 0 
0 0 0 0 0 0 0 0 0 
0 0 0 0 0 0 0 0 0 
0 0 0 0 0 0 0 0 0 
0 0 0 0 0 0 0 0 0 
0 0 0 0 0 0 0 0 0 
0 0 0 0 0 0 0 0 0 
0 0 0 0 0 0 0 0 0 
0 0 0 0 0 0 0 0 0 
0 0 0 0 0 0 0 0 0 
0 0 0 0 0 0 0 0 0 
0 0 0 0 0 0 0 0 0 
0 0 0 0 0 0 0 0 0 
0 0 0 0 0 0 0 0 0 
0 0 0 0 0 0 0 0 0 
0 0 0 0 0 0 0 0 0 
0 0 0 0 0 0 0 0 0 
0 0 0 0 0 0 0 0 0 
0 0 0 0 0 0 0 0 0 
0 0 0 0 0 0 0 0 0 
0 0 0 0 0 0 0 0 0 
0 0 0 0 0 0 0 0 0 
0 0 0 0 0 0 0 0 0 
0 0 0 0 0 0 0 0 0 
0 0 0 0 0 0 0 0 0 
0 0 0 0 0 0 0 0 0 
0 0 0 0 0 0 0 0 0 
0 0 0 0 0 0 0 0 0 
0 0 0 0 0 0 0 0 0 
0 0 0 0 0 0 0 0 0 
0 0 0 0 0 0 0 0 0 
0 0 0 0 0 0 0 0 0 
0 0 0 0 0 0 0 0 0 
0 0 0 0 0 0 0 0 0 
0 0 0 0 0 0 0 0 0 
0 0 0 0 0 0 0 0 0 
0 0 0 0 0 0 0 0 0 
0 0 0 0 0 0 0 0 0 
0 0 0 0 0 0 0 0 0 
0 0 0 0 0 0 0 0 0 
0 0 0 0 0 0 0 0 0 
0 0 0 0 0 0 0 0 0 
0 0 0 0 0 0 0 0 0 
0 0 0 0 0 0 0 0 0 
0 0 0 0 0 0 0 0 0 
0 0 0 0 0 0 0 0 0 
0 0 0 0 0 0 0 0 0 
0 0 0 0 0 0 0 0 0 
0 0 0 0 0 0 0 0 0 
0 0 0 0 0 0 0 0 0 
0 0 0 0 0 0 0 0 0 
0 0 0 0 0 0 0 0 0 
0 0 0 0 0 0 0 0 0 
0 0 0 0 0 0 0 0 0 
0 0 0 0 0 0 0 0 0 
0 0 0 0 0 0 0 0 0 
0 0 0 0 0 0 0 0 0 
0 0 0 0 0 0 0 0 0 
0 0 0 0 0 0 0 0 0 
0 0 0 0 0 0 0 0 0 
0 0 0 0 0 0 0 0 0 
0 0 0 0 0 0 0 0 0 
0 0 0 0 0 0 0 0 0 
0 0 0 0 0 0 0 0 0 
0 0 0 0 0 0 0 0 0 
0 0 0 0 0 0 0 0 0 
0 0 0 0 0 0 0 0 0 
0 0 0 0 0 0 0 0 0 
0 0 0 0 0 0 0 0 0 
0 0 0 0 0 0 0 0 0 
0 0 0 0 0 0 0 0 0 
0 0 0 0 0 0 0 0 0 
0 0 0 0 0 0 0 0 0 
0 0 0 0 0 0 0 0 0 
0 0 0 0 0 0 0 0 0 
0 0 0 0 0 0 0 0 0 
0 0 0 0 0 0 0 0 0 
0 0 0 0 0 0 0 0 0 
0 0 0 0 0 0 0 0 0 
0 0 0 0 0 0 0 0 0 
0 0 0 0 0 0 0 0 0 
0 0 0 0 0 0 0 0 0 
0 0 0 0 0 0 0 0 0 
0 0 0 0 0 0 0 0 0 
0 0 0 0 0 0 0 0 0 
0 0 0 0 0 0 0 0 0 
0 0 0 0 0 0 0 0 0 
0 0 0 0 0 0 0 0 0 
0 0 0 0 0 0 0 0 0 
0 0 0 0 0 0 0 0 0 
0 0 0 0 0 0 0 0 0 
0 0 0 0 0 0 0 0 0 
0 0 0 0 0 0 0 0 0 
0 0 0 0 0 0 0 0 0 
0 0 0 0 0 0 0 0 0 
0 0 0 0 0 0 0 0 0 
0 0 0 0 0 0 0 0 0 
0 0 0 0 0 0 0 0 0 
0 0 0 0 0 0 0 0 0 
0 0 0 0 0 0 0 0 0 
0 0 0 0 0 0 0 0 0 
0 0 0 0 0 0 0 0 0 
0 0 0 0 0 0 0 0 0 
0 0 0 0 0 0 0 0 0 
0 0 0 0 0 0 0 0 0 
0 0 0 0 0 0 0 0 0 
0 0 0 0 0 0 0 0 0 
0 0 0 0 0 0 0 0 0 
0 0 0 0 0 0 0 0 0 
0 0 0 0 0 0 0 0 0 
0 0 0 0 0 0 0 0 0 
0 0 0 0 0 0 0 0 0 
0 0 0 0 0 0 0 0 0 
0 0 0 0 0 0 0 0 0 
0 0 0 0 0 0 0 0 0 
0 0 0 0 0 0 0 0 0 
0 0 0 0 0 0 0 0 0 
0 0 0 0 0 0 0 0 0 
0 0 0 0 0 0 0 0 0 
0 0 0 0 0 0 0 0 0 
0 0 0 0 0 0 0 0 0 
0 0 0 0 0 0 0 0 0 
0 0 0 0 0 0 0 0 0 
0 0 0 0 0 0 0 0 0 
0 0 0 0 0 0 0 0 0 
0 0 0 0 0 0 0 0 0 
0 0 0 0 0 0 0 0 0 
0 0 0 0 0 0 0 0 0 
0 0 0 0 0 0 0 0 0 
0 0 0 0 0 0 0 0 0 
0 0 0 0 0 0 0 0 0 
0 0 0 0 0 0 0 0 0 
0 0 0 0 0 0 0 0 0 
0 0 0 0 0 0 0 0 0 
0 0 0 0 0 0 0 0 0 
0 0 0 0 0 0 0 0 0 
0 0 0 0 0 0 0 0 0 
0 0 0 0 0 0 0 0 0 
0 0 0 0 0 0 0 0 0 
0 0 0 0 0 0 0 0 0 
0 0 0 0 0 0 0 0 0 
0 0 0 0 0 0 0 0 0 
0 0 0 0 0 0 0 0 0 
0 0 0 0 0 0 0 0 0 
0 0 0 0 0 0 0 0 0 
0 0 0 0 0 0 0 0 0 
0 0 0 0 0 0 0 0 0 
0 0 0 0 0 0 0 0 0 
0 0 0 0 0 0 0 0 0 
0 0 0 0 0 0 0 0 0 
0 0 0 0 0 0 0 0 0 
0 0 0 0 0 0 0 0 0 
0 0 0 0 0 0 0 0 0 
0 0 0 0 0 0 0 0 0 
0 0 0 0 0 0 0 0 0 
0 0 0 0 0 0 0 0 0 
0 0 0 0 0 0 0 0 0 
0 0 0 0 0 0 0 0 0 
0 0 0 0 0 0 0 0 0 
0 0 0 0 0 0 0 0 0 
0 0 0 0 0 0 0 0 0 
0 0 0 0 0 0 0 0 0 
0 0 0 0 0 0 0 0 0 
0 0 0 0 0 0 0 0 0 
0 0 0 0 0 0 0 0 0 
0 0 0 0 0 0 0 0 0 
0 0 0 0 0 0 0 0 0 
0 0 0 0 0 0 0 0 0 
0 0 0 0 0 0 0 0 0 
0 0 0 0 0 0 0 0 0 
0 0 0 0 0 0 0 0 0 
0 0 0 0 0 0 0 0 0 
0 0 0 0 0 0 0 0 0 
0 0 0 0 0 0 0 0 0 
0 0 0 0 0 0 0 0 0 
0 0 0 0 0 0 0 0 0 
0 0 0 0 0 0 0 0 0 
0 0 0 0 0 0 0 0 0 
0 0 0 0 0 0 0 0 0 
0 0 0 0 0 0 0 0 0 
0 0 0 0 0 0 0 0 0 
0 0 0 0 0 0 0 0 0 
0 0 0 0 0 0 0 0 0 
0 0 0 0 0 0 0 0 0 
0 0 0 0 0 0 0 0 0 
0 0 0 0 0 0 0 0 0 
0 0 0 0 0 0 0 0 0 
0 0 0 0 0 0 0 0 0 
0 0 0 0 0 0 0 0 0 
0 0 0 0 0 0 0 0 0 
0 0 0 0 0 0 0 0 0 
0 0 0 0 0 0 0 0 0 
0 0 0 0 0 0 0 0 0 
0 0 0 0 0 0 0 0 0 
0 0 0 0 0 0 0 0 0 
0 0 0 0 0 0 0 0 0 
0 0 0 0 0 0 0 0 0 
0 0 0 0 0 0 0 0 0 
0 0 0 0 0 0 0 0 0 
0 0 0 0 0 0 0 0 0 
0 0 0 0 0 0 0 0 0 
0 0 0 0 0 0 0 0 0 
0 0 0 0 0 0 0 0 0 
0 0 0 0 0 0 0 0 0 
0 0 0 0 0 0 0 0 0 
0 0 0 0 0 0 0 0 0 
0 0 0 0 0 0 0 0 0 
0 0 0 0 0 0 0 0 0 
0 0 0 0 0 0 0 0 0 
0 0 0 0 0 0 0 0 0 
0 0 0 0 0 0 0 0 0 
0 0 0 0 0 0 0 0 0 
0 0 0 0 0 0 0 0 0 
0 0 0 0 0 0 0 0 0 
0 0 0 0 0 0 0 0 0 
0 0 0 0 0 0 0 0 0 
0 0 0 0 0 0 0 0 0 
0 0 0 0 0 0 0 0 0 
0 0 0 0 0 0 0 0 0 
0 0 0 0 0 0 0 0 0 
0 0 0 0 0 0 0 0 0 
0 0 0 0 0 0 0 0 0 
0 0 0 0 0 0 0 0 0 
0 0 0 0 0 0 0 0 0 
0 0 0 0 0 0 0 0 0 
0 0 0 0 0 0 0 0 0 
0 0 0 0 0 0 0 0 0 
0 0 0 0 0 0 0 0 0 
0 0 0 0 0 0 0 0 0 
0 0 0 0 0 0 0 0 0 
0 0 0 0 0 0 0 0 0 
0 0 0 0 0 0 0 0 0 
0 0 0 0 0 0 0 0 0 
0 0 0 0 0 0 0 0 0 
0 0 0 0 0 0 0 0 0 
0 0 0 0 0 0 0 0 0 
0 0 0 0 0 0 0 0 0 
0 0 0 0 0 0 0 0 0 
0 0 0 0 0 0 0 0 0 
0 0 0 0 0 0 0 0 0 
0 0 0 0 0 0 0 0 0 
0 0 0 0 0 0 0 0 0 
0 0 0 0 0 0 0 0 0 
0 0 0 0 0 0 0 0 0 
0 0 0 0 0 0 0 0 0 
0 0 0 0 0 0 0 0 0 
0 0 0 0 0 0 0 0 0 
0 0 0 0 0 0 0 0 0 
0 0 0 0 0 0 0 0 0 
0 0 0 0 0 0 0 0 0 
0 0 0 0 0 0 0 0 0 
0 0 0 0 0 0 0 0 0 
0 0 0 0 0 0 0 0 0 
0 0 0 0 0 0 0 0 0 
0 0 0 0 0 0 0 0 0 
0 0 0 0 0 0 0 0 0 
0 0 0 0 0 0 0 0 0 
0 0 0 0 0 0 0 0 0 
0 0 0 0 0 0 0 0 0 
0 0 0 0 0 0 0 0 0 
0 0 0 0 0 0 0 0 0 
0 0 0 0 0 0 0 0 0 
0 0 0 0 0 0 0 0 0 
0 0 0 0 0 0 0 0 0 
0 0 0 0 0 0 0 0 0 
0 0 0 0 0 0 0 0 0 
0 0 0 0 0 0 0 0 0 
0 0 0 0 0 0 0 0 0 
0 0 0 0 0 0 0 0 0 
0 0 0 0 0 0 0 0 0 
0 0 0 0 0 0 0 0 0 
0 0 0 0 0 0 0 0 0 
0 0 0 0 0 0 0 0 0 
0 0 0 0 0 0 0 0 0 
0 0 0 0 0 0 0 0 0 
0 0 0 0 0 0 0 0 0 
0 0 0 0 0 0 0 0 0 
0 0 0 0 0 0 0 0 0 
0 0 0 0 0 0 0 0 0 
0 0 0 0 0 0 0 0 0 
0 0 0 0 0 0 0 0 0 
0 0 0 0 0 0 0 0 0 
0 0 0 0 0 0 0 0 0 
0 0 0 0 0 0 0 0 0 
0 0 0 0 0 0 0 0 0 
0 0 0 0 0 0 0 0 0 
0 0 0 0 0 0 0 0 0 
0 0 0 0 0 0 0 0 0 
0 0 0 0 0 0 0 0 0 
0 0 0 0 0 0 0 0 0 
0 0 0 0 0 0 0 0 0 
0 0 0 0 0 0 0 0 0 
0 0 0 0 0 0 0 0 0 
0 0 0 0 0 0 0 0 0 
0 0 0 0 0 0 0 0 0 
0 0 0 0 0 0 0 0 0 
0 0 0 0 0 0 0 0 0 
0 0 0 0 0 0 0 0 0 
0 0 0 0 0 0 0 0 0 
0 0 0 0 0 0 0 0 0 
0 0 0 0 0 0 0 0 0 
0 0 0 0 0 0 0 0 0 
0 0 0 0 0 0 0 0 0 
0 0 0 0 0 0 0 0 0 
0 0 0 0 0 0 0 0 0 
0 0 0 0 0 0 0 0 0 
0 0 0 0 0 0 0 0 0 
0 0 0 0 0 0 0 0 0 
0 0 0 0 0 0 0 0 0 
0 0 0 0 0 0 0 0 0 
0 0 0 0 0 0 0 0 0 
0 0 0 0 0 0 0 0 0 
0 0 0 0 0 0 0 0 0 
0 0 0 0 0 0 0 0 0 
0 0 0 0 0 0 0 0 0 
0 0 0 0 0 0 0 0 0 
0 0 0 0 0 0 0 0 0 
0 0 0 0 0 0 0 0 0 
0 0 0 0 0 0 0 0 0 
0 0 0 0 0 0 0 0 0 
0 0 0 0 0 0 0 0 0 
0 0 0 0 0 0 0 0 0 
0 0 0 0 0 0 0 0 0 
0 0 0 0 0 0 0 0 0 
0 0 0 0 0 0 0 0 0 
0 0 0 0 0 0 0 0 0 
0 0 0 0 0 0 0 0 0 
0 0 0 0 0 0 0 0 0 
0 0 0 0 0 0 0 0 0 
0 0 0 0 0 0 0 0 0 
0 0 0 0 0 0 0 0 0 
0 0 0 0 0 0 0 0 0 
0 0 0 0 0 0 0 0 0 
0 0 0 0 0 0 0 0 0 
0 0 0 0 0 0 0 0 0 
0 0 0 0 0 0 0 0 0 
0 0 0 0 0 0 0 0 0 
0 0 0 0 0 0 0 0 0 
0 0 0 0 0 0 0 0 0 
0 0 0 0 0 0 0 0 0 
0 0 0 0 0 0 0 0 0 
0 0 0 0 0 0 0 0 0 
0 0 0 0 0 0 0 0 0 
0 0 0 0 0 0 0 0 0 
0 0 0 0 0 0 0 0 0 
0 0 0 0 0 0 0 0 0 
0 0 0 0 0 0 0 0 0 
0 0 0 0 0 0 0 0 0 
0 0 0 0 0 0 0 0 0 
0 0 0 0 0 0 0 0 0 
0 0 0 0 0 0 0 0 0 
0 0 0 0 0 0 0 0 0 
0 0 0 0 0 0 0 0 0 
0 0 0 0 0 0 0 0 0 
0 0 0 0 0 0 0 0 0 
0 0 0 0 0 0 0 0 0 
0 0 0 0 0 0 0 0 0 
0 0 0 0 0 0 0 0 0 
0 0 0 0 0 0 0 0 0 
0 0 0 0 0 0 0 0 0 
0 0 0 0 0 0 0 0 0 
0 0 0 0 0 0 0 0 0 
0 0 0 0 0 0 0 0 0 
0 0 0 0 0 0 0 0 0 
0 0 0 0 0 0 0 0 0 
0 0 0 0 0 0 0 0 0 
0 0 0 0 0 0 0 0 0 
0 0 0 0 0 0 0 0 0 
0 0 0 0 0 0 0 0 0 
0 0 0 0 0 0 0 0 0 
0 0 0 0 0 0 0 0 0 
0 0 0 0 0 0 0 0 0 
0 0 0 0 0 0 0 0 0 
0 0 0 0 0 0 0 0 0 
0 0 0 0 0 0 0 0 0 
0 0 0 0 0 0 0 0 0 
0 0 0 0 0 0 0 0 0 
0 0 0 0 0 0 0 0 0 
0 0 0 0 0 0 0 0 0 
0 0 0 0 0 0 0 0 0 
0 0 0 0 0 0 0 0 0 
0 0 0 0 0 0 0 0 0 
0 0 0 0 0 0 0 0 0 
0 0 0 0 0 0 0 0 0 
0 0 0 0 0 0 0 0 0 
0 0 0 0 0 0 0 0 0 
0 0 0 0 0 0 0 0 0 
0 0 0 0 0 0 0 0 0 
0 0 0 0 0 0 0 0 0 
0 0 0 0 0 0 0 0 0 
0 0 0 0 0 0 0 0 0 
0 0 0 0 0 0 0 0 0 
0 0 0 0 0 0 0 0 0 
0 0 0 0 0 0 0 0 0 
0 0 0 0 0 0 0 0 0 
0 0 0 0 0 0 0 0 0 
0 0 0 0 0 0 0 0 0 
0 0 0 0 0 0 0 0 0 
0 0 0 0 0 0 0 0 0 
0 0 0 0 0 0 0 0 0 
0 0 0 0 0 0 0 0 0 
0 0 0 0 0 0 0 0 0 
0 0 0 0 0 0 0 0 0 
0 0 0 0 0 0 0 0 0 
0 0 0 0 0 0 0 0 0 
0 0 0 0 0 0 0 0 0 
0 0 0 0 0 0 0 0 0 
0 0 0 0 0 0 0 0 0 
0 0 0 0 0 0 0 0 0 
0 0 0 0 0 0 0 0 0 
0 0 0 0 0 0 0 0 0 
0 0 0 0 0 0 0 0 0 
0 0 0 0 0 0 0 0 0 
0 0 0 0 0 0 0 0 0 
0 0 0 0 0 0 0 0 0 
0 0 0 0 0 0 0 0 0 
0 0 0 0 0 0 0 0 0 
0 0 0 0 0 0 0 0 0 
0 0 0 0 0 0 0 0 0 
0 0 0 0 0 0 0 0 0 
0 0 0 0 0 0 0 0 0 
0 0 0 0 0 0 0 0 0 
0 0 0 0 0 0 0 0 0 
0 0 0 0 0 0 0 0 0 
0 0 0 0 0 0 0 0 0 
0 0 0 0 0 0 0 0 0 
0 0 0 0 0 0 0 0 0 
0 0 0 0 0 0 0 0 0 
0 0 0 0 0 0 0 0 0 
0 0 0 0 0 0 0 0 0 
0 0 0 0 0 0 0 0 0 
0 0 0 0 0 0 0 0 0 
0 0 0 0 0 0 0 0 0 
0 0 0 0 0 0 0 0 0 
0 0 0 0 0 0 0 0 0 
0 0 0 0 0 0 0 0 0 
0 0 0 0 0 0 0 0 0 
0 0 0 0 0 0 0 0 0 
0 0 0 0 0 0 0 0 0 
0 0 0 0 0 0 0 0 0 
0 0 0 0 0 0 0 0 0 
0 0 0 0 0 0 0 0 0 
0 0 0 0 0 0 0 0 0 
0 0 0 0 0 0 0 0 0 
0 0 0 0 0 0 0 0 0 
0 0 0 0 0 0 0 0 0 
0 0 0 0 0 0 0 0 0 
0 0 0 0 0 0 0 0 0 
0 0 0 0 0 0 0 0 0 
0 0 0 0 0 0 0 0 0 
0 0 0 0 0 0 0 0 0 
0 0 0 0 0 0 0 0 0 
0 0 0 0 0 0 0 0 0 
0 0 0 0 0 0 0 0 0 
0 0 0 0 0 0 0 0 0 
0 0 0 0 0 0 0 0 0 
0 0 0 0 0 0 0 0 0 
0 0 0 0 0 0 0 0 0 
0 0 0 0 0 0 0 0 0 
0 0 0 0 0 0 0 0 0 
0 0 0 0 0 0 0 0 0 
0 0 0 0 0 0 0 0 0 
0 0 0 0 0 0 0 0 0 
0 0 0 0 0 0 0 0 0 
0 0 0 0 0 0 0 0 0 
0 0 0 0 0 0 0 0 0 
0 0 0 0 0 0 0 0 0 
0 0 0 0 0 0 0 0 0 
0 0 0 0 0 0 0 0 0 
0 0 0 0 0 0 0 0 0 
0 0 0 0 0 0 0 0 0 
0 0 0 0 0 0 0 0 0 
0 0 0 0 0 0 0 0 0 
0 0 0 0 0 0 0 0 0 
0 0 0 0 0 0 0 0 0 
0 0 0 0 0 0 0 0 0 
0 0 0 0 0 0 0 0 0 
0 0 0 0 0 0 0 0 0 
0 0 0 0 0 0 0 0 0 
0 0 0 0 0 0 0 0 0 
0 0 0 0 0 0 0 0 0 
0 0 0 0 0 0 0 0 0 
0 0 0 0 0 0 0 0 0 
0 0 0 0 0 0 0 0 0 
0 0 0 0 0 0 0 0 0 
0 0 0 0 0 0 0 0 0 
0 0 0 0 0 0 0 0 0 
0 0 0 0 0 0 0 0 0 
0 0 0 0 0 0 0 0 0 
0 0 0 0 0 0 0 0 0 
0 0 0 0 0 0 0 0 0 
0 0 0 0 0 0 0 0 0 
0 0 0 0 0 0 0 0 0 
0 0 0 0 0 0 0 0 0 
0 0 0 0 0 0 0 0 0 
0 0 0 0 0 0 0 0 0 
0 0 0 0 0 0 0 0 0 
0 0 0 0 0 0 0 0 0 
0 0 0 0 0 0 0 0 0 
0 0 0 0 0 0 0 0 0 
0 0 0 0 0 0 0 0 0 
0 0 0 0 0 0 0 0 0 
0 0 0 0 0 0 0 0 0 
0 0 0 0 0 0 0 0 0 
0 0 0 0 0 0 0 0 0 
0 0 0 0 0 0 0 0 0 
0 0 0 0 0 0 0 0 0 
0 0 0 0 0 0 0 0 0 
0 0 0 0 0 0 0 0 0 
0 0 0 0 0 0 0 0 0 
0 0 0 0 0 0 0 0 0 
0 0 0 0 0 0 0 0 0 
0 0 0 0 0 0 0 0 0 
0 0 0 0 0 0 0 0 0 
0 0 0 0 0 0 0 0 0 
0 0 0 0 0 0 0 0 0 
0 0 0 0 0 0 0 0 0 
0 0 0 0 0 0 0 0 0 
0 0 0 0 0 0 0 0 0 
0 0 0 0 0 0 0 0 0 
0 0 0 0 0 0 0 0 0 
0 0 0 0 0 0 0 0 0 
0 0 0 0 0 0 0 0 0 
0 0 0 0 0 0 0 0 0 
0 0 0 0 0 0 0 0 0 
0 0 0 0 0 0 0 0 0 
0 0 0 0 0 0 0 0 0 
0 0 0 0 0 0 0 0 0 
0 0 0 0 0 0 0 0 0 
0 0 0 0 0 0 0 0 0 
0 0 0 0 0 0 0 0 0 
0 0 0 0 0 0 0 0 0 
0 0 0 0 0 0 0 0 0 
0 0 0 0 0 0 0 0 0 
0 0 0 0 0 0 0 0 0 
0 0 0 0 0 0 0 0 0 
0 0 0 0 0 0 0 0 0 
0 0 0 0 0 0 0 0 0 
0 0 0 0 0 0 0 0 0 
0 0 0 0 0 0 0 0 0 
0 0 0 0 0 0 0 0 0 
0 0 0 0 0 0 0 0 0 
0 0 0 0 0 0 0 0 0 
0 0 0 0 0 0 0 0 0 
0 0 0 0 0 0 0 0 0 
0 0 0 0 0 0 0 0 0 
0 0 0 0 0 0 0 0 0 
0 0 0 0 0 0 0 0 0 
0 0 0 0 0 0 0 0 0 
0 0 0 0 0 0 0 0 0 
0 0 0 0 0 0 0 0 0 
0 0 0 0 0 0 0 0 0 
0 0 0 0 0 0 0 0 0 
0 0 0 0 0 0 0 0 0 
0 0 0 0 0 0 0 0 0 
0 0 0 0 0 0 0 0 0 
0 0 0 0 0 0 0 0 0 
0 0 0 0 0 0 0 0 0 
0 0 0 0 0 0 0 0 0 
0 0 0 0 0 0 0 0 0 
0 0 0 0 0 0 0 0 0 
0 0 0 0 0 0 0 0 0 
0 0 0 0 0 0 0 0 0 
0 0 0 0 0 0 0 0 0 
0 0 0 0 0 0 0 0 0 
0 0 0 0 0 0 0 0 0 
0 0 0 0 0 0 0 0 0 
0 0 0 0 0 0 0 0 0 
0 0 0 0 0 0 0 0 0 
0 0 0 0 0 0 0 0 0 
0 0 0 0 0 0 0 0 0 
0 0 0 0 0 0 0 0 0 
0 0 0 0 0 0 0 0 0 
0 0 0 0 0 0 0 0 0 
0 0 0 0 0 0 0 0 0 
0 0 0 0 0 0 0 0 0 
0 0 0 0 0 0 0 0 0 
0 0 0 0 0 0 0 0 0 
0 0 0 0 0 0 0 0 0 
0 0 0 0 0 0 0 0 0 
0 0 0 0 0 0 0 0 0 
0 0 0 0 0 0 0 0 0 
0 0 0 0 0 0 0 0 0 
0 0 0 0 0 0 0 0 0 
0 0 0 0 0 0 0 0 0 
0 0 0 0 0 0 0 0 0 
0 0 0 0 0 0 0 0 0 
0 0 0 0 0 0 0 0 0 
0 0 0 0 0 0 0 0 0 
0 0 0 0 0 0 0 0 0 
0 0 0 0 0 0 0 0 0 
0 0 0 0 0 0 0 0 0 
0 0 0 0 0 0 0 0 0 
0 0 0 0 0 0 0 0 0 
0 0 0 0 0 0 0 0 0 
0 0 0 0 0 0 0 0 0 
0 0 0 0 0 0 0 0 0 
0 0 0 0 0 0 0 0 0 
0 0 0 0 0 0 0 0 0 
0 0 0 0 0 0 0 0 0 
0 0 0 0 0 0 0 0 0 
0 0 0 0 0 0 0 0 0 
0 0 0 0 0 0 0 0 0 
0 0 0 0 0 0 0 0 0 
0 0 0 0 0 0 0 0 0 
0 0 0 0 0 0 0 0 0 
0 0 0 0 0 0 0 0 0 
0 0 0 0 0 0 0 0 0 
0 0 0 0 0 0 0 0 0 
0 0 0 0 0 0 0 0 0 
0 0 0 0 0 0 0 0 0 
0 0 0 0 0 0 0 0 0 
0 0 0 0 0 0 0 0 0 
0 0 0 0 0 0 0 0 0 
0 0 0 0 0 0 0 0 0 
0 0 0 0 0 0 0 0 0 
0 0 0 0 0 0 0 0 0 
0 0 0 0 0 0 0 0 0 
0 0 0 0 0 0 0 0 0 
0 0 0 0 0 0 0 0 0 
0 0 0 0 0 0 0 0 0 
0 0 0 0 0 0 0 0 0 
0 0 0 0 0 0 0 0 0 
0 0 0 0 0 0 0 0 0 
0 0 0 0 0 0 0 0 0 
0 0 0 0 0 0 0 0 0 
0 0 0 0 0 0 0 0 0 
0 0 0 0 0 0 0 0 0 
0 0 0 0 0 0 0 0 0 
0 0 0 0 0 0 0 0 0 
0 0 0 0 0 0 0 0 0 
0 0 0 0 0 0 0 0 0 
0 0 0 0 0 0 0 0 0 
0 0 0 0 0 0 0 0 0 
0 0 0 0 0 0 0 0 0 
0 0 0 0 0 0 0 0 0 
0 0 0 0 0 0 0 0 0 
0 0 0 0 0 0 0 0 0 
0 0 0 0 0 0 0 0 0 
0 0 0 0 0 0 0 0 0 
0 0 0 0 0 0 0 0 0 
0 0 0 0 0 0 0 0 0 
0 0 0 0 0 0 0 0 0 
0 0 0 0 0 0 0 0 0 
0 0 0 0 0 0 0 0 0 
0 0 0 0 0 0 0 0 0 
0 0 0 0 0 0 0 0 0 
0 0 0 0 0 0 0 0 0 
0 0 0 0 0 0 0 0 0 
0 0 0 0 0 0 0 0 0 
0 0 0 0 0 0 0 0 0 
0 0 0 0 0 0 0 0 0 
0 0 0 0 0 0 0 0 0 
0 0 0 0 0 0 0 0 0 
0 0 0 0 0 0 0 0 0 
0 0 0 0 0 0 0 0 0 
0 0 0 0 0 0 0 0 0 
0 0 0 0 0 0 0 0 0 
0 0 0 0 0 0 0 0 0 
0 0 0 0 0 0 0 0 0 
0 0 0 0 0 0 0 0 0 
0 0 0 0 0 0 0 0 0 
0 0 0 0 0 0 0 0 0 
0 0 0 0 0 0 0 0 0 
0 0 0 0 0 0 0 0 0 
0 0 0 0 0 0 0 0 0 
0 0 0 0 0 0 0 0 0 
0 0 0 0 0 0 0 0 0 
0 0 0 0 0 0 0 0 0 
0 0 0 0 0 0 0 0 0 
0 0 0 0 0 0 0 0 0 
0 0 0 0 0 0 0 0 0 
0 0 0 0 0 0 0 0 0 
0 0 0 0 0 0 0 0 0 
0 0 0 0 0 0 0 0 0 
0 0 0 0 0 0 0 0 0 
0 0 0 0 0 0 0 0 0 
0 0 0 0 0 0 0 0 0 
0 0 0 0 0 0 0 0 0 
0 0 0 0 0 0 0 0 0 
0 0 0 0 0 0 0 0 0 
0 0 0 0 0 0 0 0 0 
0 0 0 0 0 0 0 0 0 
0 0 0 0 0 0 0 0 0 
0 0 0 0 0 0 0 0 0 
0 0 0 0 0 0 0 0 0 
0 0 0 0 0 0 0 0 0 
0 0 0 0 0 0 0 0 0 
0 0 0 0 0 0 0 0 0 
0 0 0 0 0 0 0 0 0 
0 0 0 0 0 0 0 0 0 
0 0 0 0 0 0 0 0 0 
0 0 0 0 0 0 0 0 0 
0 0 0 0 0 0 0 0 0 
0 0 0 0 0 0 0 0 0 
0 0 0 0 0 0 0 0 0 
0 0 0 0 0 0 0 0 0 
0 0 0 0 0 0 0 0 0 
0 0 0 0 0 0 0 0 0 
0 0 0 0 0 0 0 0 0 
0 0 0 0 0 0 0 0 0 
0 0 0 0 0 0 0 0 0 
0 0 0 0 0 0 0 0 0 
0 0 0 0 0 0 0 0 0 
0 0 0 0 0 0 0 0 0 
0 0 0 0 0 0 0 0 0 
0 0 0 0 0 0 0 0 0 
0 0 0 0 0 0 0 0 0 
0 0 0 0 0 0 0 0 0 
0 0 0 0 0 0 0 0 0 
0 0 0 0 0 0 0 0 0 
0 0 0 0 0 0 0 0 0 
0 0 0 0 0 0 0 0 0 
0 0 0 0 0 0 0 0 0 
0 0 0 0 0 0 0 0 0 
0 0 0 0 0 0 0 0 0 
0 0 0 0 0 0 0 0 0 
0 0 0 0 0 0 0 0 0 
0 0 0 0 0 0 0 0 0 
0 0 0 0 0 0 0 0 0 
0 0 0 0 0 0 0 0 0 
0 0 0 0 0 0 0 0 0 
0 0 0 0 0 0 0 0 0 
0 0 0 0 0 0 0 0 0 
0 0 0 0 0 0 0 0 0 
0 0 0 0 0 0 0 0 0 
0 0 0 0 0 0 0 0 0 
0 0 0 0 0 0 0 0 0 
0 0 0 0 0 0 0 0 0 
0 0 0 0 0 0 0 0 0 
0 0 0 0 0 0 0 0 0 
0 0 0 0 0 0 0 0 0 
0 0 0 0 0 0 0 0 0 
0 0 0 0 0 0 0 0 0 
0 0 0 0 0 0 0 0 0 
0 0 0 0 0 0 0 0 0 
0 0 0 0 0 0 0 0 0 
0 0 0 0 0 0 0 0 0 
0 0 0 0 0 0 0 0 0 
0 0 0 0 0 0 0 0 0 
0 0 0 0 0 0 0 0 0 
0 0 0 0 0 0 0 0 0 
0 0 0 0 0 0 0 0 0 
0 0 0 0 0 0 0 0 0 
0 0 0 0 0 0 0 0 0 
0 0 0 0 0 0 0 0 0 
0 0 0 0 0 0 0 0 0 
0 0 0 0 0 0 0 0 0 
0 0 0 0 0 0 0 0 0 
0 0 0 0 0 0 0 0 0 
0 0 0 0 0 0 0 0 0 
0 0 0 0 0 0 0 0 0 
0 0 0 0 0 0 0 0 0 
0 0 0 0 0 0 0 0 0 
0 0 0 0 0 0 0 0 0 
0 0 0 0 0 0 0 0 0 
0 0 0 0 0 0 0 0 0 
0 0 0 0 0 0 0 0 0 
0 0 0 0 0 0 0 0 0 
0 0 0 0 0 0 0 0 0 
0 0 0 0 0 0 0 0 0 
0 0 0 0 0 0 0 0 0 
0 0 0 0 0 0 0 0 0 
0 0 0 0 0 0 0 0 0 
0 0 0 0 0 0 0 0 0 
0 0 0 0 0 0 0 0 0 
0 0 0 0 0 0 0 0 0 
0 0 0 0 0 0 0 0 0 
0 0 0 0 0 0 0 0 0 
0 0 0 0 0 0 0 0 0 
0 0 0 0 0 0 0 0 0 
0 0 0 0 0 0 0 0 0 
0 0 0 0 0 0 0 0 0 
0 0 0 0 0 0 0 0 0 
0 0 0 0 0 0 0 0 0 
0 0 0 0 0 0 0 0 0 
0 0 0 0 0 0 0 0 0 
0 0 0 0 0 0 0 0 0 
0 0 0 0 0 0 0 0 0 
0 0 0 0 0 0 0 0 0 
0 0 0 0 0 0 0 0 0 
0 0 0 0 0 0 0 0 0 
0 0 0 0 0 0 0 0 0 
0 0 0 0 0 0 0 0 0 
0 0 0 0 0 0 0 0 0 
0 0 0 0 0 0 0 0 0 
0 0 0 0 0 0 0 0 0 
0 0 0 0 0 0 0 0 0 
0 0 0 0 0 0 0 0 0 
0 0 0 0 0 0 0 0 0 
0 0 0 0 0 0 0 0 0 
0 0 0 0 0 0 0 0 0 
0 0 0 0 0 0 0 0 0 
0 0 0 0 0 0 0 0 0 
0 0 0 0 0 0 0 0 0 
0 0 0 0 0 0 0 0 0 
0 0 0 0 0 0 0 0 0 
0 0 0 0 0 0 0 0 0 
0 0 0 0 0 0 0 0 0 
0 0 0 0 0 0 0 0 0 
0 0 0 0 0 0 0 0 0 
0 0 0 0 0 0 0 0 0 
0 0 0 0 0 0 0 0 0 
0 0 0 0 0 0 0 0 0 
0 0 0 0 0 0 0 0 0 
0 0 0 0 0 0 0 0 0 
0 0 0 0 0 0 0 0 0 
0 0 0 0 0 0 0 0 0 
0 0 0 0 0 0 0 0 0 
0 0 0 0 0 0 0 0 0 
0 0 0 0 0 0 0 0 0 
0 0 0 0 0 0 0 0 0 
0 0 0 0 0 0 0 0 0 
0 0 0 0 0 0 0 0 0 
0 0 0 0 0 0 0 0 0 
0 0 0 0 0 0 0 0 0 
0 0 0 0 0 0 0 0 0 
0 0 0 0 0 0 0 0 0 
0 0 0 0 0 0 0 0 0 
0 0 0 0 0 0 0 0 0 
0 0 0 0 0 0 0 0 0 
0 0 0 0 0 0 0 0 0 
0 0 0 0 0 0 0 0 0 
0 0 0 0 0 0 0 0 0 
0 0 0 0 0 0 0 0 0 
0 0 0 0 0 0 0 0 0 
0 0 0 0 0 0 0 0 0 
0 0 0 0 0 0 0 0 0 
0 0 0 0 0 0 0 0 0 
0 0 0 0 0 0 0 0 0 
0 0 0 0 0 0 0 0 0 
0 0 0 0 0 0 0 0 0 
0 0 0 0 0 0 0 0 0 
0 0 0 0 0 0 0 0 0 
0 0 0 0 0 0 0 0 0 
0 0 0 0 0 0 0 0 0 
0 0 0 0 0 0 0 0 0 
0 0 0 0 0 0 0 0 0 
0 0 0 0 0 0 0 0 0 
0 0 0 0 0 0 0 0 0 
0 0 0 0 0 0 0 0 0 
0 0 0 0 0 0 0 0 0 
0 0 0 0 0 0 0 0 0 
0 0 0 0 0 0 0 0 0 
0 0 0 0 0 0 0 0 0 
0 0 0 0 0 0 0 0 0 
0 0 0 0 0 0 0 0 0 
0 0 0 0 0 0 0 0 0 
0 0 0 0 0 0 0 0 0 
0 0 0 0 0 0 0 0 0 
0 0 0 0 0 0 0 0 0 
0 0 0 0 0 0 0 0 0 
0 0 0 0 0 0 0 0 0 
0 0 0 0 0 0 0 0 0 
0 0 0 0 0 0 0 0 0 
0 0 0 0 0 0 0 0 0 
0 0 0 0 0 0 0 0 0 
0 0 0 0 0 0 0 0 0 
0 0 0 0 0 0 0 0 0 
0 0 0 0 0 0 0 0 0 
0 0 0 0 0 0 0 0 0 
0 0 0 0 0 0 0 0 0 
0 0 0 0 0 0 0 0 0 
0 0 0 0 0 0 0 0 0 
0 0 0 0 0 0 0 0 0 
0 0 0 0 0 0 0 0 0 
0 0 0 0 0 0 0 0 0 
0 0 0 0 0 0 0 0 0 
0 0 0 0 0 0 0 0 0 
0 0 0 0 0 0 0 0 0 
0 0 0 0 0 0 0 0 0 
0 0 0 0 0 0 0 0 0 
0 0 0 0 0 0 0 0 0 
0 0 0 0 0 0 0 0 0 
0 0 0 0 0 0 0 0 0 
0 0 0 0 0 0 0 0 0 
0 0 0 0 0 0 0 0 0 
0 0 0 0 0 0 0 0 0 
0 0 0 0 0 0 0 0 0 
0 0 0 0 0 0 0 0 0 
0 0 0 0 0 0 0 0 0 
0 0 0 0 0 0 0 0 0 
0 0 0 0 0 0 0 0 0 
0 0 0 0 0 0 0 0 0 
0 0 0 0 0 0 0 0 0 
0 0 0 0 0 0 0 0 0 
0 0 0 0 0 0 0 0 0 
0 0 0 0 0 0 0 0 0 
0 0 0 0 0 0 0 0 0 
0 0 0 0 0 0 0 0 0 
0 0 0 0 0 0 0 0 0 
0 0 0 0 0 0 0 0 0 
0 0 0 0 0 0 0 0 0 
0 0 0 0 0 0 0 0 0 
0 0 0 0 0 0 0 0 0 
0 0 0 0 0 0 0 0 0 
0 0 0 0 0 0 0 0 0 
0 0 0 0 0 0 0 0 0 
0 0 0 0 0 0 0 0 0 
0 0 0 0 0 0 0 0 0 
0 0 0 0 0 0 0 0 0 
0 0 0 0 0 0 0 0 0 
0 0 0 0 0 0 0 0 0 
0 0 0 0 0 0 0 0 0 
0 0 0 0 0 0 0 0 0 
0 0 0 0 0 0 0 0 0 
0 0 0 0 0 0 0 0 0 
0 0 0 0 0 0 0 0 0 
0 0 0 0 0 0 0 0 0 
0 0 0 0 0 0 0 0 0 
0 0 0 0 0 0 0 0 0 
0 0 0 0 0 0 0 0 0 
0 0 0 0 0 0 0 0 0 
0 0 0 0 0 0 0 0 0 
0 0 0 0 0 0 0 0 0 
0 0 0 0 0 0 0 0 0 
0 0 0 0 0 0 0 0 0 
0 0 0 0 0 0 0 0 0 
0 0 0 0 0 0 0 0 0 
0 0 0 0 0 0 0 0 0 
0 0 0 0 0 0 0 0 0 
0 0 0 0 0 0 0 0 0 
0 0 0 0 0 0 0 0 0 
0 0 0 0 0 0 0 0 0 
0 0 0 0 0 0 0 0 0 
0 0 0 0 0 0 0 0 0 
0 0 0 0 0 0 0 0 0 
0 0 0 0 0 0 0 0 0 
0 0 0 0 0 0 0 0 0 
0 0 0 0 0 0 0 0 0 
0 0 0 0 0 0 0 0 0 
0 0 0 0 0 0 0 0 0 
0 0 0 0 0 0 0 0 0 
0 0 0 0 0 0 0 0 0 
0 0 0 0 0 0 0 0 0 
0 0 0 0 0 0 0 0 0 
0 0 0 0 0 0 0 0 0 
0 0 0 0 0 0 0 0 0 
0 0 0 0 0 0 0 0 0 
0 0 0 0 0 0 0 0 0 
0 0 0 0 0 0 0 0 0 
0 0 0 0 0 0 0 0 0 
0 0 0 0 0 0 0 0 0 
0 0 0 0 0 0 0 0 0 
0 0 0 0 0 0 0 0 0 
0 0 0 0 0 0 0 0 0 
0 0 0 0 0 0 0 0 0 
0 0 0 0 0 0 0 0 0 
0 0 0 0 0 0 0 0 0 
0 0 0 0 0 0 0 0 0 
0 0 0 0 0 0 0 0 0 
0 0 0 0 0 0 0 0 0 
0 0 0 0 0 0 0 0 0 
0 0 0 0 0 0 0 0 0 
0 0 0 0 0 0 0 0 0 
0 0 0 0 0 0 0 0 0 
0 0 0 0 0 0 0 0 0 
0 0 0 0 0 0 0 0 0 
0 0 0 0 0 0 0 0 0 
0 0 0 0 0 0 0 0 0 
0 0 0 0 0 0 0 0 0 
0 0 0 0 0 0 0 0 0 
0 0 0 0 0 0 0 0 0 
0 0 0 0 0 0 0 0 0 
0 0 0 0 0 0 0 0 0 
0 0 0 0 0 0 0 0 0 
0 0 0 0 0 0 0 0 0 
0 0 0 0 0 0 0 0 0 
0 0 0 0 0 0 0 0 0 
0 0 0 0 0 0 0 0 0 
0 0 0 0 0 0 0 0 0 
0 0 0 0 0 0 0 0 0 
0 0 0 0 0 0 0 0 0 
0 0 0 0 0 0 0 0 0 
0 0 0 0 0 0 0 0 0 
0 0 0 0 0 0 0 0 0 
0 0 0 0 0 0 0 0 0 
0 0 0 0 0 0 0 0 0 
0 0 0 0 0 0 0 0 0 
0 0 0 0 0 0 0 0 0 
0 0 0 0 0 0 0 0 0 
0 0 0 0 0 0 0 0 0 
0 0 0 0 0 0 0 0 0 
0 0 0 0 0 0 0 0 0 
0 0 0 0 0 0 0 0 0 
0 0 0 0 0 0 0 0 0 
0 0 0 0 0 0 0 0 0 
0 0 0 0 0 0 0 0 0 
0 0 0 0 0 0 0 0 0 
0 0 0 0 0 0 0 0 0 
0 0 0 0 0 0 0 0 0 
0 0 0 0 0 0 0 0 0 
0 0 0 0 0 0 0 0 0 
0 0 0 0 0 0 0 0 0 
0 0 0 0 0 0 0 0 0 
0 0 0 0 0 0 0 0 0 
0 0 0 0 0 0 0 0 0 
0 0 0 0 0 0 0 0 0 
0 0 0 0 0 0 0 0 0 
0 0 0 0 0 0 0 0 0 
0 0 0 0 0 0 0 0 0 
0 0 0 0 0 0 0 0 0 
0 0 0 0 0 0 0 0 0 
0 0 0 0 0 0 0 0 0 
0 0 0 0 0 0 0 0 0 
0 0 0 0 0 0 0 0 0 
0 0 0 0 0 0 0 0 0 
0 0 0 0 0 0 0 0 0 
0 0 0 0 0 0 0 0 0 
0 0 0 0 0 0 0 0 0 
0 0 0 0 0 0 0 0 0 
0 0 0 0 0 0 0 0 0 
0 0 0 0 0 0 0 0 0 
0 0 0 0 0 0 0 0 0 
0 0 0 0 0 0 0 0 0 
0 0 0 0 0 0 0 0 0 
0 0 0 0 0 0 0 0 0 
0 0 0 0 0 0 0 0 0 
0 0 0 0 0 0 0 0 0 
0 0 0 0 0 0 0 0 0 
0 0 0 0 0 0 0 0 0 
0 0 0 0 0 0 0 0 0 
0 0 0 0 0 0 0 0 0 
0 0 0 0 0 0 0 0 0 
0 0 0 0 0 0 0 0 0 
0 0 0 0 0 0 0 0 0 
0 0 0 0 0 0 0 0 0 
0 0 0 0 0 0 0 0 0 
0 0 0 0 0 0 0 0 0 
0 0 0 0 0 0 0 0 0 
0 0 0 0 0 0 0 0 0 
0 0 0 0 0 0 0 0 0 
0 0 0 0 0 0 0 0 0 
0 0 0 0 0 0 0 0 0 
0 0 0 0 0 0 0 0 0 
0 0 0 0 0 0 0 0 0 
0 0 0 0 0 0 0 0 0 
0 0 0 0 0 0 0 0 0 
0 0 0 0 0 0 0 0 0 
0 0 0 0 0 0 0 0 0 
0 0 0 0 0 0 0 0 0 
0 0 0 0 0 0 0 0 0 
0 0 0 0 0 0 0 0 0 
0 0 0 0 0 0 0 0 0 
0 0 0 0 0 0 0 0 0 
0 0 0 0 0 0 0 0 0 
0 0 0 0 0 0 0 0 0 
0 0 0 0 0 0 0 0 0 
0 0 0 0 0 0 0 0 0 
0 0 0 0 0 0 0 0 0 
0 0 0 0 0 0 0 0 0 
0 0 0 0 0 0 0 0 0 
0 0 0 0 0 0 0 0 0 
0 0 0 0 0 0 0 0 0 
0 0 0 0 0 0 0 0 0 
0 0 0 0 0 0 0 0 0 
0 0 0 0 0 0 0 0 0 
0 0 0 0 0 0 0 0 0 
0 0 0 0 0 0 0 0 0 
0 0 0 0 0 0 0 0 0 
0 0 0 0 0 0 0 0 0 
0 0 0 0 0 0 0 0 0 
0 0 0 0 0 0 0 0 0 
0 0 0 0 0 0 0 0 0 
0 0 0 0 0 0 0 0 0 
0 0 0 0 0 0 0 0 0 
0 0 0 0 0 0 0 0 0 
0 0 0 0 0 0 0 0 0 
0 0 0 0 0 0 0 0 0 
0 0 0 0 0 0 0 0 0 
0 0 0 0 0 0 0 0 0 
0 0 0 0 0 0 0 0 0 
0 0 0 0 0 0 0 0 0 
0 0 0 0 0 0 0 0 0 
0 0 0 0 0 0 0 0 0 
0 0 0 0 0 0 0 0 0 
0 0 0 0 0 0 0 0 0 
0 0 0 0 0 0 0 0 0 
0 0 0 0 0 0 0 0 0 
0 0 0 0 0 0 0 0 0 
0 0 0 0 0 0 0 0 0 
0 0 0 0 0 0 0 0 0 
0 0 0 0 0 0 0 0 0 
0 0 0 0 0 0 0 0 0 
0 0 0 0 0 0 0 0 0 
0 0 0 0 0 0 0 0 0 
0 0 0 0 0 0 0 0 0 
0 0 0 0 0 0 0 0 0 
0 0 0 0 0 0 0 0 0 
0 0 0 0 0 0 0 0 0 
0 0 0 0 0 0 0 0 0 
0 0 0 0 0 0 0 0 0 
0 0 0 0 0 0 0 0 0 
0 0 0 0 0 0 0 0 0 
0 0 0 0 0 0 0 0 0 
0 0 0 0 0 0 0 0 0 
0 0 0 0 0 0 0 0 0 
0 0 0 0 0 0 0 0 0 
0 0 0 0 0 0 0 0 0 
0 0 0 0 0 0 0 0 0 
0 0 0 0 0 0 0 0 0 
0 0 0 0 0 0 0 0 0 
0 0 0 0 0 0 0 0 0 
0 0 0 0 0 0 0 0 0 
0 0 0 0 0 0 0 0 0 
0 0 0 0 0 0 0 0 0 
0 0 0 0 0 0 0 0 0 
0 0 0 0 0 0 0 0 0 
0 0 0 0 0 0 0 0 0 
0 0 0 0 0 0 0 0 0 
0 0 0 0 0 0 0 0 0 
0 0 0 0 0 0 0 0 0 
0 0 0 0 0 0 0 0 0 
0 0 0 0 0 0 0 0 0 
0 0 0 0 0 0 0 0 0 
0 0 0 0 0 0 0 0 0 
0 0 0 0 0 0 0 0 0 
0 0 0 0 0 0 0 0 0 
0 0 0 0 0 0 0 0 0 
0 0 0 0 0 0 0 0 0 
0 0 0 0 0 0 0 0 0 
0 0 0 0 0 0 0 0 0 
0 0 0 0 0 0 0 0 0 
0 0 0 0 0 0 0 0 0 
0 0 0 0 0 0 0 0 0 
0 0 0 0 0 0 0 0 0 
0 0 0 0 0 0 0 0 0 
0 0 0 0 0 0 0 0 0 
0 0 0 0 0 0 0 0 0 
0 0 0 0 0 0 0 0 0 
0 0 0 0 0 0 0 0 0 
0 0 0 0 0 0 0 0 0 
0 0 0 0 0 0 0 0 0 
0 0 0 0 0 0 0 0 0 
0 0 0 0 0 0 0 0 0 
0 0 0 0 0 0 0 0 0 
0 0 0 0 0 0 0 0 0 
0 0 0 0 0 0 0 0 0 
0 0 0 0 0 0 0 0 0 
0 0 0 0 0 0 0 0 0 
0 0 0 0 0 0 0 0 0 
0 0 0 0 0 0 0 0 0 
0 0 0 0 0 0 0 0 0 
0 0 0 0 0 0 0 0 0 
0 0 0 0 0 0 0 0 0 
0 0 0 0 0 0 0 0 0 
0 0 0 0 0 0 0 0 0 
0 0 0 0 0 0 0 0 0 
0 0 0 0 0 0 0 0 0 
0 0 0 0 0 0 0 0 0 
0 0 0 0 0 0 0 0 0 
0 0 0 0 0 0 0 0 0 
0 0 0 0 0 0 0 0 0 
0 0 0 0 0 0 0 0 0 
0 0 0 0 0 0 0 0 0 
0 0 0 0 0 0 0 0 0 
0 0 0 0 0 0 0 0 0 
0 0 0 0 0 0 0 0 0 
0 0 0 0 0 0 0 0 0 
0 0 0 0 0 0 0 0 0 
0 0 0 0 0 0 0 0 0 
0 0 0 0 0 0 0 0 0 
0 0 0 0 0 0 0 0 0 
0 0 0 0 0 0 0 0 0 
0 0 0 0 0 0 0 0 0 
0 0 0 0 0 0 0 0 0 
0 0 0 0 0 0 0 0 0 
0 0 0 0 0 0 0 0 0 
0 0 0 0 0 0 0 0 0 
0 0 0 0 0 0 0 0 0 
0 0 0 0 0 0 0 0 0 
0 0 0 0 0 0 0 0 0 
0 0 0 0 0 0 0 0 0 
0 0 0 0 0 0 0 0 0 
0 0 0 0 0 0 0 0 0 
0 0 0 0 0 0 0 0 0 
0 0 0 0 0 0 0 0 0 
0 0 0 0 0 0 0 0 0 
0 0 0 0 0 0 0 0 0 
0 0 0 0 0 0 0 0 0 
0 0 0 0 0 0 0 0 0 
0 0 0 0 0 0 0 0 0 
0 0 0 0 0 0 0 0 0 
0 0 0 0 0 0 0 0 0 
0 0 0 0 0 0 0 0 0 
0 0 0 0 0 0 0 0 0 
0 0 0 0 0 0 0 0 0 
0 0 0 0 0 0 0 0 0 
0 0 0 0 0 0 0 0 0 
0 0 0 0 0 0 0 0 0 
0 0 0 0 0 0 0 0 0 
0 0 0 0 0 0 0 0 0 
0 0 0 0 0 0 0 0 0 
0 0 0 0 0 0 0 0 0 
0 0 0 0 0 0 0 0 0 
0 0 0 0 0 0 0 0 0 
0 0 0 0 0 0 0 0 0 
0 0 0 0 0 0 0 0 0 
0 0 0 0 0 0 0 0 0 
0 0 0 0 0 0 0 0 0 
0 0 0 0 0 0 0 0 0 
0 0 0 0 0 0 0 0 0 
0 0 0 0 0 0 0 0 0 
0 0 0 0 0 0 0 0 0 
0 0 0 0 0 0 0 0 0 
0 0 0 0 0 0 0 0 0 
0 0 0 0 0 0 0 0 0 
0 0 0 0 0 0 0 0 0 
0 0 0 0 0 0 0 0 0 
0 0 0 0 0 0 0 0 0 
0 0 0 0 0 0 0 0 0 
0 0 0 0 0 0 0 0 0 
0 0 0 0 0 0 0 0 0 
0 0 0 0 0 0 0 0 0 
0 0 0 0 0 0 0 0 0 
0 0 0 0 0 0 0 0 0 
0 0 0 0 0 0 0 0 0 
0 0 0 0 0 0 0 0 0 
0 0 0 0 0 0 0 0 0 
0 0 0 0 0 0 0 0 0 
0 0 0 0 0 0 0 0 0 
0 0 0 0 0 0 0 0 0 
0 0 0 0 0 0 0 0 0 
0 0 0 0 0 0 0 0 0 
0 0 0 0 0 0 0 0 0 
0 0 0 0 0 0 0 0 0 
0 0 0 0 0 0 0 0 0 
0 0 0 0 0 0 0 0 0 
0 0 0 0 0 0 0 0 0 
0 0 0 0 0 0 0 0 0 
0 0 0 0 0 0 0 0 0 
0 0 0 0 0 0 0 0 0 
0 0 0 0 0 0 0 0 0 
0 0 0 0 0 0 0 0 0 
0 0 0 0 0 0 0 0 0 
0 0 0 0 0 0 0 0 0 
0 0 0 0 0 0 0 0 0 
0 0 0 0 0 0 0 0 0 
0 0 0 0 0 0 0 0 0 
0 0 0 0 0 0 0 0 0 
0 0 0 0 0 0 0 0 0 
0 0 0 0 0 0 0 0 0 
0 0 0 0 0 0 0 0 0 
0 0 0 0 0 0 0 0 0 
0 0 0 0 0 0 0 0 0 
0 0 0 0 0 0 0 0 0 
0 0 0 0 0 0 0 0 0 
0 0 0 0 0 0 0 0 0 
0 0 0 0 0 0 0 0 0 
0 0 0 0 0 0 0 0 0 
0 0 0 0 0 0 0 0 0 
0 0 0 0 0 0 0 0 0 
0 0 0 0 0 0 0 0 0 
0 0 0 0 0 0 0 0 0 
0 0 0 0 0 0 0 0 0 
0 0 0 0 0 0 0 0 0 
0 0 0 0 0 0 0 0 0 
0 0 0 0 0 0 0 0 0 
0 0 0 0 0 0 0 0 0 
0 0 0 0 0 0 0 0 0 
0 0 0 0 0 0 0 0 0 
0 0 0 0 0 0 0 0 0 
0 0 0 0 0 0 0 0 0 
0 0 0 0 0 0 0 0 0 
0 0 0 0 0 0 0 0 0 
0 0 0 0 0 0 0 0 0 
0 0 0 0 0 0 0 0 0 
0 0 0 0 0 0 0 0 0 
0 0 0 0 0 0 0 0 0 
0 0 0 0 0 0 0 0 0 
0 0 0 0 0 0 0 0 0 
0 0 0 0 0 0 0 0 0 
0 0 0 0 0 0 0 0 0 
0 0 0 0 0 0 0 0 0 
0 0 0 0 0 0 0 0 0 
0 0 0 0 0 0 0 0 0 
0 0 0 0 0 0 0 0 0 
0 0 0 0 0 0 0 0 0 
0 0 0 0 0 0 0 0 0 
0 0 0 0 0 0 0 0 0 
0 0 0 0 0 0 0 0 0 
0 0 0 0 0 0 0 0 0 
0 0 0 0 0 0 0 0 0 
0 0 0 0 0 0 0 0 0 
0 0 0 0 0 0 0 0 0 
0 0 0 0 0 0 0 0 0 
0 0 0 0 0 0 0 0 0 
0 0 0 0 0 0 0 0 0 
0 0 0 0 0 0 0 0 0 
0 0 0 0 0 0 0 0 0 
0 0 0 0 0 0 0 0 0 
0 0 0 0 0 0 0 0 0 
0 0 0 0 0 0 0 0 0 
0 0 0 0 0 0 0 0 0 
0 0 0 0 0 0 0 0 0 
0 0 0 0 0 0 0 0 0 
0 0 0 0 0 0 0 0 0 
0 0 0 0 0 0 0 0 0 
0 0 0 0 0 0 0 0 0 
0 0 0 0 0 0 0 0 0 
0 0 0 0 0 0 0 0 0 
0 0 0 0 0 0 0 0 0 
0 0 0 0 0 0 0 0 0 
0 0 0 0 0 0 0 0 0 
0 0 0 0 0 0 0 0 0 
0 0 0 0 0 0 0 0 0 
0 0 0 0 0 0 0 0 0 
0 0 0 0 0 0 0 0 0 
0 0 0 0 0 0 0 0 0 
0 0 0 0 0 0 0 0 0 
0 0 0 0 0 0 0 0 0 
0 0 0 0 0 0 0 0 0 
0 0 0 0 0 0 0 0 0 
0 0 0 0 0 0 0 0 0 
0 0 0 0 0 0 0 0 0 
0 0 0 0 0 0 0 0 0 
0 0 0 0 0 0 0 0 0 
0 0 0 0 0 0 0 0 0 
0 0 0 0 0 0 0 0 0 
0 0 0 0 0 0 0 0 0 
0 0 0 0 0 0 0 0 0 
0 0 0 0 0 0 0 0 0 
0 0 0 0 0 0 0 0 0 
0 0 0 0 0 0 0 0 0 
0 0 0 0 0 0 0 0 0 
0 0 0 0 0 0 0 0 0 
0 0 0 0 0 0 0 0 0 
0 0 0 0 0 0 0 0 0 
0 0 0 0 0 0 0 0 0 
0 0 0 0 0 0 0 0 0 
0 0 0 0 0 0 0 0 0 
0 0 0 0 0 0 0 0 0 
0 0 0 0 0 0 0 0 0 
0 0 0 0 0 0 0 0 0 
0 0 0 0 0 0 0 0 0 
0 0 0 0 0 0 0 0 0 
0 0 0 0 0 0 0 0 0 
0 0 0 0 0 0 0 0 0 
0 0 0 0 0 0 0 0 0 
0 0 0 0 0 0 0 0 0 
0 0 0 0 0 0 0 0 0 
0 0 0 0 0 0 0 0 0 
0 0 0 0 0 0 0 0 0 
0 0 0 0 0 0 0 0 0 
0 0 0 0 0 0 0 0 0 
0 0 0 0 0 0 0 0 0 
0 0 0 0 0 0 0 0 0 
0 0 0 0 0 0 0 0 0 
0 0 0 0 0 0 0 0 0 
0 0 0 0 0 0 0 0 0 
0 0 0 0 0 0 0 0 0 
0 0 0 0 0 0 0 0 0 
0 0 0 0 0 0 0 0 0 
0 0 0 0 0 0 0 0 0 
0 0 0 0 0 0 0 0 0 
0 0 0 0 0 0 0 0 0 
0 0 0 0 0 0 0 0 0 
0 0 0 0 0 0 0 0 0 
0 0 0 0 0 0 0 0 0 
0 0 0 0 0 0 0 0 0 
0 0 0 0 0 0 0 0 0 
0 0 0 0 0 0 0 0 0 
0 0 0 0 0 0 0 0 0 
0 0 0 0 0 0 0 0 0 
0 0 0 0 0 0 0 0 0 
0 0 0 0 0 0 0 0 0 
0 0 0 0 0 0 0 0 0 
0 0 0 0 0 0 0 0 0 
0 0 0 0 0 0 0 0 0 
0 0 0 0 0 0 0 0 0 
0 0 0 0 0 0 0 0 0 
0 0 0 0 0 0 0 0 0 
0 0 0 0 0 0 0 0 0 
0 0 0 0 0 0 0 0 0 
0 0 0 0 0 0 0 0 0 
0 0 0 0 0 0 0 0 0 
0 0 0 0 0 0 0 0 0 
0 0 0 0 0 0 0 0 0 
0 0 0 0 0 0 0 0 0 
0 0 0 0 0 0 0 0 0 
0 0 0 0 0 0 0 0 0 
0 0 0 0 0 0 0 0 0 
0 0 0 0 0 0 0 0 0 
0 0 0 0 0 0 0 0 0 
0 0 0 0 0 0 0 0 0 
0 0 0 0 0 0 0 0 0 
0 0 0 0 0 0 0 0 0 
0 0 0 0 0 0 0 0 0 
0 0 0 0 0 0 0 0 0 
0 0 0 0 0 0 0 0 0 
0 0 0 0 0 0 0 0 0 
0 0 0 0 0 0 0 0 0 
0 0 0 0 0 0 0 0 0 
0 0 0 0 0 0 0 0 0 
0 0 0 0 0 0 0 0 0 
0 0 0 0 0 0 0 0 0 
0 0 0 0 0 0 0 0 0 
0 0 0 0 0 0 0 0 0 
0 0 0 0 0 0 0 0 0 
0 0 0 0 0 0 0 0 0 
0 0 0 0 0 0 0 0 0 
0 0 0 0 0 0 0 0 0 
0 0 0 0 0 0 0 0 0 
0 0 0 0 0 0 0 0 0 
0 0 0 0 0 0 0 0 0 
0 0 0 0 0 0 0 0 0 
0 0 0 0 0 0 0 0 0 
0 0 0 0 0 0 0 0 0 
0 0 0 0 0 0 0 0 0 
0 0 0 0 0 0 0 0 0 
0 0 0 0 0 0 0 0 0 
0 0 0 0 0 0 0 0 0 
0 0 0 0 0 0 0 0 0 
0 0 0 0 0 0 0 0 0 
0 0 0 0 0 0 0 0 0 
0 0 0 0 0 0 0 0 0 
0 0 0 0 0 0 0 0 0 
0 0 0 0 0 0 0 0 0 
0 0 0 0 0 0 0 0 0 
0 0 0 0 0 0 0 0 0 
0 0 0 0 0 0 0 0 0 
0 0 0 0 0 0 0 0 0 
0 0 0 0 0 0 0 0 0 
0 0 0 0 0 0 0 0 0 
0 0 0 0 0 0 0 0 0 
0 0 0 0 0 0 0 0 0 
0 0 0 0 0 0 0 0 0 
0 0 0 0 0 0 0 0 0 
0 0 0 0 0 0 0 0 0 
0 0 0 0 0 0 0 0 0 
0 0 0 0 0 0 0 0 0 
0 0 0 0 0 0 0 0 0 
0 0 0 0 0 0 0 0 0 
0 0 0 0 0 0 0 0 0 
0 0 0 0 0 0 0 0 0 
0 0 0 0 0 0 0 0 0 
0 0 0 0 0 0 0 0 0 
0 0 0 0 0 0 0 0 0 
0 0 0 0 0 0 0 0 0 
0 0 0 0 0 0 0 0 0 
0 0 0 0 0 0 0 0 0 
0 0 0 0 0 0 0 0 0 
0 0 0 0 0 0 0 0 0 
0 0 0 0 0 0 0 0 0 
0 0 0 0 0 0 0 0 0 
0 0 0 0 0 0 0 0 0 
0 0 0 0 0 0 0 0 0 
0 0 0 0 0 0 0 0 0 
0 0 0 0 0 0 0 0 0 
0 0 0 0 0 0 0 0 0 
0 0 0 0 0 0 0 0 0 
0 0 0 0 0 0 0 0 0 
0 0 0 0 0 0 0 0 0 
0 0 0 0 0 0 0 0 0 
0 0 0 0 0 0 0 0 0 
0 0 0 0 0 0 0 0 0 
0 0 0 0 0 0 0 0 0 
0 0 0 0 0 0 0 0 0 
0 0 0 0 0 0 0 0 0 
0 0 0 0 0 0 0 0 0 
0 0 0 0 0 0 0 0 0 
0 0 0 0 0 0 0 0 0 
0 0 0 0 0 0 0 0 0 
0 0 0 0 0 0 0 0 0 
0 0 0 0 0 0 0 0 0 
0 0 0 0 0 0 0 0 0 
0 0 0 0 0 0 0 0 0 
0 0 0 0 0 0 0 0 0 
0 0 0 0 0 0 0 0 0 
0 0 0 0 0 0 0 0 0 
0 0 0 0 0 0 0 0 0 
0 0 0 0 0 0 0 0 0 
0 0 0 0 0 0 0 0 0 
0 0 0 0 0 0 0 0 0 
0 0 0 0 0 0 0 0 0 
0 0 0 0 0 0 0 0 0 
0 0 0 0 0 0 0 0 0 
0 0 0 0 0 0 0 0 0 
0 0 0 0 0 0 0 0 0 
0 0 0 0 0 0 0 0 0 
0 0 0 0 0 0 0 0 0 
0 0 0 0 0 0 0 0 0 
0 0 0 0 0 0 0 0 0 
0 0 0 0 0 0 0 0 0 
0 0 0 0 0 0 0 0 0 
0 0 0 0 0 0 0 0 0 
0 0 0 0 0 0 0 0 0 
0 0 0 0 0 0 0 0 0 
0 0 0 0 0 0 0 0 0 
0 0 0 0 0 0 0 0 0 
0 0 0 0 0 0 0 0 0 
0 0 0 0 0 0 0 0 0 
0 0 0 0 0 0 0 0 0 
0 0 0 0 0 0 0 0 0 
0 0 0 0 0 0 0 0 0 
0 0 0 0 0 0 0 0 0 
0 0 0 0 0 0 0 0 0 
0 0 0 0 0 0 0 0 0 
0 0 0 0 0 0 0 0 0 
0 0 0 0 0 0 0 0 0 
0 0 0 0 0 0 0 0 0 
0 0 0 0 0 0 0 0 0 
0 0 0 0 0 0 0 0 0 
0 0 0 0 0 0 0 0 0 
0 0 0 0 0 0 0 0 0 
0 0 0 0 0 0 0 0 0 
0 0 0 0 0 0 0 0 0 
0 0 0 0 0 0 0 0 0 
0 0 0 0 0 0 0 0 0 
0 0 0 0 0 0 0 0 0 
0 0 0 0 0 0 0 0 0 
0 0 0 0 0 0 0 0 0 
0 0 0 0 0 0 0 0 0 
0 0 0 0 0 0 0 0 0 
0 0 0 0 0 0 0 0 0 
0 0 0 0 0 0 0 0 0 
0 0 0 0 0 0 0 0 0 
0 0 0 0 0 0 0 0 0 
0 0 0 0 0 0 0 0 0 
0 0 0 0 0 0 0 0 0 
0 0 0 0 0 0 0 0 0 
0 0 0 0 0 0 0 0 0 
0 0 0 0 0 0 0 0 0 
0 0 0 0 0 0 0 0 0 
0 0 0 0 0 0 0 0 0 
0 0 0 0 0 0 0 0 0 
0 0 0 0 0 0 0 0 0 
0 0 0 0 0 0 0 0 0 
0 0 0 0 0 0 0 0 0 
0 0 0 0 0 0 0 0 0 
0 0 0 0 0 0 0 0 0 
0 0 0 0 0 0 0 0 0 
0 0 0 0 0 0 0 0 0 
0 0 0 0 0 0 0 0 0 
0 0 0 0 0 0 0 0 0 
0 0 0 0 0 0 0 0 0 
0 0 0 0 0 0 0 0 0 
0 0 0 0 0 0 0 0 0 
0 0 0 0 0 0 0 0 0 
0 0 0 0 0 0 0 0 0 
0 0 0 0 0 0 0 0 0 
0 0 0 0 0 0 0 0 0 
0 0 0 0 0 0 0 0 0 
0 0 0 0 0 0 0 0 0 
0 0 0 0 0 0 0 0 0 
0 0 0 0 0 0 0 0 0 
0 0 0 0 0 0 0 0 0 
0 0 0 0 0 0 0 0 0 
0 0 0 0 0 0 0 0 0 
0 0 0 0 0 0 0 0 0 
0 0 0 0 0 0 0 0 0 
0 0 0 0 0 0 0 0 0 
0 0 0 0 0 0 0 0 0 
0 0 0 0 0 0 0 0 0 
0 0 0 0 0 0 0 0 0 
0 0 0 0 0 0 0 0 0 
0 0 0 0 0 0 0 0 0 
0 0 0 0 0 0 0 0 0 
0 0 0 0 0 0 0 0 0 
0 0 0 0 0 0 0 0 0 
0 0 0 0 0 0 0 0 0 
0 0 0 0 0 0 0 0 0 
0 0 0 0 0 0 0 0 0 
0 0 0 0 0 0 0 0 0 
0 0 0 0 0 0 0 0 0 
0 0 0 0 0 0 0 0 0 
0 0 0 0 0 0 0 0 0 
0 0 0 0 0 0 0 0 0 
0 0 0 0 0 0 0 0 0 
0 0 0 0 0 0 0 0 0 
0 0 0 0 0 0 0 0 0 
0 0 0 0 0 0 0 0 0 
0 0 0 0 0 0 0 0 0 
0 0 0 0 0 0 0 0 0 
0 0 0 0 0 0 0 0 0 
0 0 0 0 0 0 0 0 0 
0 0 0 0 0 0 0 0 0 
0 0 0 0 0 0 0 0 0 
0 0 0 0 0 0 0 0 0 
0 0 0 0 0 0 0 0 0 
0 0 0 0 0 0 0 0 0 
0 0 0 0 0 0 0 0 0 
0 0 0 0 0 0 0 0 0 
0 0 0 0 0 0 0 0 0 
0 0 0 0 0 0 0 0 0 
0 0 0 0 0 0 0 0 0 
0 0 0 0 0 0 0 0 0 
0 0 0 0 0 0 0 0 0 
0 0 0 0 0 0 0 0 0 
0 0 0 0 0 0 0 0 0 
0 0 0 0 0 0 0 0 0 
0 0 0 0 0 0 0 0 0 
0 0 0 0 0 0 0 0 0 
0 0 0 0 0 0 0 0 0 
0 0 0 0 0 0 0 0 0 
0 0 0 0 0 0 0 0 0 
0 0 0 0 0 0 0 0 0 
0 0 0 0 0 0 0 0 0 
0 0 0 0 0 0 0 0 0 
0 0 0 0 0 0 0 0 0 
0 0 0 0 0 0 0 0 0 
0 0 0 0 0 0 0 0 0 
0 0 0 0 0 0 0 0 0 
0 0 0 0 0 0 0 0 0 
0 0 0 0 0 0 0 0 0 
0 0 0 0 0 0 0 0 0 
0 0 0 0 0 0 0 0 0 
0 0 0 0 0 0 0 0 0 
0 0 0 0 0 0 0 0 0 
0 0 0 0 0 0 0 0 0 
0 0 0 0 0 0 0 0 0 
0 0 0 0 0 0 0 0 0 
0 0 0 0 0 0 0 0 0 
0 0 0 0 0 0 0 0 0 
0 0 0 0 0 0 0 0 0 
0 0 0 0 0 0 0 0 0 
0 0 0 0 0 0 0 0 0 
0 0 0 0 0 0 0 0 0 
0 0 0 0 0 0 0 0 0 
0 0 0 0 0 0 0 0 0 
0 0 0 0 0 0 0 0 0 
0 0 0 0 0 0 0 0 0 
0 0 0 0 0 0 0 0 0 
0 0 0 0 0 0 0 0 0 
0 0 0 0 0 0 0 0 0 
0 0 0 0 0 0 0 0 0 
0 0 0 0 0 0 0 0 0 
0 0 0 0 0 0 0 0 0 
0 0 0 0 0 0 0 0 0 
0 0 0 0 0 0 0 0 0 
0 0 0 0 0 0 0 0 0 
0 0 0 0 0 0 0 0 0 
0 0 0 0 0 0 0 0 0 
0 0 0 0 0 0 0 0 0 
0 0 0 0 0 0 0 0 0 
0 0 0 0 0 0 0 0 0 
0 0 0 0 0 0 0 0 0 
0 0 0 0 0 0 0 0 0 
0 0 0 0 0 0 0 0 0 
0 0 0 0 0 0 0 0 0 
0 0 0 0 0 0 0 0 0 
0 0 0 0 0 0 0 0 0 
0 0 0 0 0 0 0 0 0 
0 0 0 0 0 0 0 0 0 
0 0 0 0 0 0 0 0 0 
0 0 0 0 0 0 0 0 0 
0 0 0 0 0 0 0 0 0 
0 0 0 0 0 0 0 0 0 
0 0 0 0 0 0 0 0 0 
0 0 0 0 0 0 0 0 0 
0 0 0 0 0 0 0 0 0 
0 0 0 0 0 0 0 0 0 
0 0 0 0 0 0 0 0 0 
0 0 0 0 0 0 0 0 0 
0 0 0 0 0 0 0 0 0 
0 0 0 0 0 0 0 0 0 
0 0 0 0 0 0 0 0 0 
0 0 0 0 0 0 0 0 0 
0 0 0 0 0 0 0 0 0 
0 0 0 0 0 0 0 0 0 
0 0 0 0 0 0 0 0 0 
0 0 0 0 0 0 0 0 0 
0 0 0 0 0 0 0 0 0 
0 0 0 0 0 0 0 0 0 
0 0 0 0 0 0 0 0 0 
0 0 0 0 0 0 0 0 0 
0 0 0 0 0 0 0 0 0 
0 0 0 0 0 0 0 0 0 
0 0 0 0 0 0 0 0 0 
0 0 0 0 0 0 0 0 0 
0 0 0 0 0 0 0 0 0 
0 0 0 0 0 0 0 0 0 
0 0 0 0 0 0 0 0 0 
0 0 0 0 0 0 0 0 0 
0 0 0 0 0 0 0 0 0 
0 0 0 0 0 0 0 0 0 
0 0 0 0 0 0 0 0 0 
0 0 0 0 0 0 0 0 0 
0 0 0 0 0 0 0 0 0 
0 0 0 0 0 0 0 0 0 
0 0 0 0 0 0 0 0 0 
0 0 0 0 0 0 0 0 0 
0 0 0 0 0 0 0 0 0 
0 0 0 0 0 0 0 0 0 
0 0 0 0 0 0 0 0 0 
0 0 0 0 0 0 0 0 0 
0 0 0 0 0 0 0 0 0 
0 0 0 0 0 0 0 0 0 
0 0 0 0 0 0 0 0 0 
0 0 0 0 0 0 0 0 0 
0 0 0 0 0 0 0 0 0 
0 0 0 0 0 0 0 0 0 
0 0 0 0 0 0 0 0 0 
0 0 0 0 0 0 0 0 0 
0 0 0 0 0 0 0 0 0 
0 0 0 0 0 0 0 0 0 
0 0 0 0 0 0 0 0 0 
0 0 0 0 0 0 0 0 0 
0 0 0 0 0 0 0 0 0 
0 0 0 0 0 0 0 0 0 
0 0 0 0 0 0 0 0 0 
0 0 0 0 0 0 0 0 0 
0 0 0 0 0 0 0 0 0 
0 0 0 0 0 0 0 0 0 
0 0 0 0 0 0 0 0 0 
0 0 0 0 0 0 0 0 0 
0 0 0 0 0 0 0 0 0 
0 0 0 0 0 0 0 0 0 
0 0 0 0 0 0 0 0 0 
0 0 0 0 0 0 0 0 0 
0 0 0 0 0 0 0 0 0 
0 0 0 0 0 0 0 0 0 
0 0 0 0 0 0 0 0 0 
0 0 0 0 0 0 0 0 0 
0 0 0 0 0 0 0 0 0 
0 0 0 0 0 0 0 0 0 
0 0 0 0 0 0 0 0 0 
0 0 0 0 0 0 0 0 0 
0 0 0 0 0 0 0 0 0 
0 0 0 0 0 0 0 0 0 
0 0 0 0 0 0 0 0 0 
0 0 0 0 0 0 0 0 0 
0 0 0 0 0 0 0 0 0 
0 0 0 0 0 0 0 0 0 
0 0 0 0 0 0 0 0 0 
0 0 0 0 0 0 0 0 0 
0 0 0 0 0 0 0 0 0 
0 0 0 0 0 0 0 0 0 
0 0 0 0 0 0 0 0 0 
0 0 0 0 0 0 0 0 0 
0 0 0 0 0 0 0 0 0 
0 0 0 0 0 0 0 0 0 
0 0 0 0 0 0 0 0 0 
0 0 0 0 0 0 0 0 0 
0 0 0 0 0 0 0 0 0 
0 0 0 0 0 0 0 0 0 
0 0 0 0 0 0 0 0 0 
0 0 0 0 0 0 0 0 0 
0 0 0 0 0 0 0 0 0 
0 0 0 0 0 0 0 0 0 
0 0 0 0 0 0 0 0 0 
0 0 0 0 0 0 0 0 0 
0 0 0 0 0 0 0 0 0 
0 0 0 0 0 0 0 0 0 
0 0 0 0 0 0 0 0 0 
0 0 0 0 0 0 0 0 0 
0 0 0 0 0 0 0 0 0 
0 0 0 0 0 0 0 0 0 
0 0 0 0 0 0 0 0 0 
0 0 0 0 0 0 0 0 0 
0 0 0 0 0 0 0 0 0 
0 0 0 0 0 0 0 0 0 
0 0 0 0 0 0 0 0 0 
0 0 0 0 0 0 0 0 0 
0 0 0 0 0 0 0 0 0 
0 0 0 0 0 0 0 0 0 
0 0 0 0 0 0 0 0 0 
0 0 0 0 0 0 0 0 0 
0 0 0 0 0 0 0 0 0 
0 0 0 0 0 0 0 0 0 
0 0 0 0 0 0 0 0 0 
0 0 0 0 0 0 0 0 0 
0 0 0 0 0 0 0 0 0 
0 0 0 0 0 0 0 0 0 
0 0 0 0 0 0 0 0 0 
0 0 0 0 0 0 0 0 0 
0 0 0 0 0 0 0 0 0 
0 0 0 0 0 0 0 0 0 
0 0 0 0 0 0 0 0 0 
0 0 0 0 0 0 0 0 0 
0 0 0 0 0 0 0 0 0 
0 0 0 0 0 0 0 0 0 
0 0 0 0 0 0 0 0 0 
0 0 0 0 0 0 0 0 0 
0 0 0 0 0 0 0 0 0 
0 0 0 0 0 0 0 0 0 
0 0 0 0 0 0 0 0 0 
0 0 0 0 0 0 0 0 0 
0 0 0 0 0 0 0 0 0 
0 0 0 0 0 0 0 0 0 
0 0 0 0 0 0 0 0 0 
0 0 0 0 0 0 0 0 0 
0 0 0 0 0 0 0 0 0 
0 0 0 0 0 0 0 0 0 
0 0 0 0 0 0 0 0 0 
0 0 0 0 0 0 0 0 0 
0 0 0 0 0 0 0 0 0 
0 0 0 0 0 0 0 0 0 
0 0 0 0 0 0 0 0 0 
0 0 0 0 0 0 0 0 0 
0 0 0 0 0 0 0 0 0 
0 0 0 0 0 0 0 0 0 
0 0 0 0 0 0 0 0 0 
0 0 0 0 0 0 0 0 0 
0 0 0 0 0 0 0 0 0 
0 0 0 0 0 0 0 0 0 
0 0 0 0 0 0 0 0 0 
0 0 0 0 0 0 0 0 0 
0 0 0 0 0 0 0 0 0 
0 0 0 0 0 0 0 0 0 
0 0 0 0 0 0 0 0 0 
0 0 0 0 0 0 0 0 0 
0 0 0 0 0 0 0 0 0 
0 0 0 0 0 0 0 0 0 
0 0 0 0 0 0 0 0 0 
0 0 0 0 0 0 0 0 0 
0 0 0 0 0 0 0 0 0 
0 0 0 0 0 0 0 0 0 
0 0 0 0 0 0 0 0 0 
0 0 0 0 0 0 0 0 0 
0 0 0 0 0 0 0 0 0 
0 0 0 0 0 0 0 0 0 
0 0 0 0 0 0 0 0 0 
0 0 0 0 0 0 0 0 0 
0 0 0 0 0 0 0 0 0 
0 0 0 0 0 0 0 0 0 
0 0 0 0 0 0 0 0 0 
0 0 0 0 0 0 0 0 0 
0 0 0 0 0 0 0 0 0 
0 0 0 0 0 0 0 0 0 
0 0 0 0 0 0 0 0 0 
0 0 0 0 0 0 0 0 0 
0 0 0 0 0 0 0 0 0 
0 0 0 0 0 0 0 0 0 
0 0 0 0 0 0 0 0 0 
0 0 0 0 0 0 0 0 0 
0 0 0 0 0 0 0 0 0 
0 0 0 0 0 0 0 0 0 
0 0 0 0 0 0 0 0 0 
0 0 0 0 0 0 0 0 0 
0 0 0 0 0 0 0 0 0 
0 0 0 0 0 0 0 0 0 
0 0 0 0 0 0 0 0 0 
0 0 0 0 0 0 0 0 0 
0 0 0 0 0 0 0 0 0 
0 0 0 0 0 0 0 0 0 
0 0 0 0 0 0 0 0 0 
0 0 0 0 0 0 0 0 0 
0 0 0 0 0 0 0 0 0 
0 0 0 0 0 0 0 0 0 
0 0 0 0 0 0 0 0 0 
0 0 0 0 0 0 0 0 0 
0 0 0 0 0 0 0 0 0 
0 0 0 0 0 0 0 0 0 
0 0 0 0 0 0 0 0 0 
0 0 0 0 0 0 0 0 0 
0 0 0 0 0 0 0 0 0 
0 0 0 0 0 0 0 0 0 
0 0 0 0 0 0 0 0 0 
0 0 0 0 0 0 0 0 0 
0 0 0 0 0 0 0 0 0 
0 0 0 0 0 0 0 0 0 
0 0 0 0 0 0 0 0 0 
0 0 0 0 0 0 0 0 0 
0 0 0 0 0 0 0 0 0 
0 0 0 0 0 0 0 0 0 
0 0 0 0 0 0 0 0 0 
0 0 0 0 0 0 0 0 0 
0 0 0 0 0 0 0 0 0 
0 0 0 0 0 0 0 0 0 
0 0 0 0 0 0 0 0 0 
0 0 0 0 0 0 0 0 0 
0 0 0 0 0 0 0 0 0 
0 0 0 0 0 0 0 0 0 
0 0 0 0 0 0 0 0 0 
0 0 0 0 0 0 0 0 0 
0 0 0 0 0 0 0 0 0 
0 0 0 0 0 0 0 0 0 
0 0 0 0 0 0 0 0 0 
0 0 0 0 0 0 0 0 0 
0 0 0 0 0 0 0 0 0 
0 0 0 0 0 0 0 0 0 
0 0 0 0 0 0 0 0 0 
0 0 0 0 0 0 0 0 0 
0 0 0 0 0 0 0 0 0 
0 0 0 0 0 0 0 0 0 
0 0 0 0 0 0 0 0 0 
0 0 0 0 0 0 0 0 0 
0 0 0 0 0 0 0 0 0 
0 0 0 0 0 0 0 0 0 
0 0 0 0 0 0 0 0 0 
0 0 0 0 0 0 0 0 0 
0 0 0 0 0 0 0 0 0 
0 0 0 0 0 0 0 0 0 
0 0 0 0 0 0 0 0 0 
0 0 0 0 0 0 0 0 0 
0 0 0 0 0 0 0 0 0 
0 0 0 0 0 0 0 0 0 
0 0 0 0 0 0 0 0 0 
0 0 0 0 0 0 0 0 0 
0 0 0 0 0 0 0 0 0 
0 0 0 0 0 0 0 0 0 
0 0 0 0 0 0 0 0 0 
0 0 0 0 0 0 0 0 0 
0 0 0 0 0 0 0 0 0 
0 0 0 0 0 0 0 0 0 
0 0 0 0 0 0 0 0 0 
0 0 0 0 0 0 0 0 0 
0 0 0 0 0 0 0 0 0 
0 0 0 0 0 0 0 0 0 
0 0 0 0 0 0 0 0 0 
0 0 0 0 0 0 0 0 0 
0 0 0 0 0 0 0 0 0 
0 0 0 0 0 0 0 0 0 
0 0 0 0 0 0 0 0 0 
0 0 0 0 0 0 0 0 0 
0 0 0 0 0 0 0 0 0 
0 0 0 0 0 0 0 0 0 
0 0 0 0 0 0 0 0 0 
0 0 0 0 0 0 0 0 0 
0 0 0 0 0 0 0 0 0 
0 0 0 0 0 0 0 0 0 
0 0 0 0 0 0 0 0 0 
0 0 0 0 0 0 0 0 0 
0 0 0 0 0 0 0 0 0 
0 0 0 0 0 0 0 0 0 
0 0 0 0 0 0 0 0 0 
0 0 0 0 0 0 0 0 0 
0 0 0 0 0 0 0 0 0 
0 0 0 0 0 0 0 0 0 
0 0 0 0 0 0 0 0 0 
0 0 0 0 0 0 0 0 0 
0 0 0 0 0 0 0 0 0 
0 0 0 0 0 0 0 0 0 
0 0 0 0 0 0 0 0 0 
0 0 0 0 0 0 0 0 0 
0 0 0 0 0 0 0 0 0 
0 0 0 0 0 0 0 0 0 
0 0 0 0 0 0 0 0 0 
0 0 0 0 0 0 0 0 0 
0 0 0 0 0 0 0 0 0 
0 0 0 0 0 0 0 0 0 
0 0 0 0 0 0 0 0 0 
0 0 0 0 0 0 0 0 0 
0 0 0 0 0 0 0 0 0 
0 0 0 0 0 0 0 0 0 
0 0 0 0 0 0 0 0 0 
0 0 0 0 0 0 0 0 0 
0 0 0 0 0 0 0 0 0 
0 0 0 0 0 0 0 0 0 
0 0 0 0 0 0 0 0 0 
0 0 0 0 0 0 0 0 0 
0 0 0 0 0 0 0 0 0 
0 0 0 0 0 0 0 0 0 
0 0 0 0 0 0 0 0 0 
0 0 0 0 0 0 0 0 0 
0 0 0 0 0 0 0 0 0 
0 0 0 0 0 0 0 0 0 
0 0 0 0 0 0 0 0 0 
0 0 0 0 0 0 0 0 0 
0 0 0 0 0 0 0 0 0 
0 0 0 0 0 0 0 0 0 
0 0 0 0 0 0 0 0 0 
0 0 0 0 0 0 0 0 0 
0 0 0 0 0 0 0 0 0 
0 0 0 0 0 0 0 0 0 
0 0 0 0 0 0 0 0 0 
0 0 0 0 0 0 0 0 0 
0 0 0 0 0 0 0 0 0 
0 0 0 0 0 0 0 0 0 
0 0 0 0 0 0 0 0 0 
0 0 0 0 0 0 0 0 0 
0 0 0 0 0 0 0 0 0 
0 0 0 0 0 0 0 0 0 
0 0 0 0 0 0 0 0 0 
0 0 0 0 0 0 0 0 0 
0 0 0 0 0 0 0 0 0 
0 0 0 0 0 0 0 0 0 
0 0 0 0 0 0 0 0 0 
0 0 0 0 0 0 0 0 0 
0 0 0 0 0 0 0 0 0 
0 0 0 0 0 0 0 0 0 
0 0 0 0 0 0 0 0 0 
0 0 0 0 0 0 0 0 0 
0 0 0 0 0 0 0 0 0 
0 0 0 0 0 0 0 0 0 
0 0 0 0 0 0 0 0 0 
0 0 0 0 0 0 0 0 0 
0 0 0 0 0 0 0 0 0 
0 0 0 0 0 0 0 0 0 
0 0 0 0 0 0 0 0 0 
0 0 0 0 0 0 0 0 0 
0 0 0 0 0 0 0 0 0 
0 0 0 0 0 0 0 0 0 
0 0 0 0 0 0 0 0 0 
0 0 0 0 0 0 0 0 0 
0 0 0 0 0 0 0 0 0 
0 0 0 0 0 0 0 0 0 
0 0 0 0 0 0 0 0 0 
0 0 0 0 0 0 0 0 0 
0 0 0 0 0 0 0 0 0 
0 0 0 0 0 0 0 0 0 
0 0 0 0 0 0 0 0 0 
0 0 0 0 0 0 0 0 0 
0 0 0 0 0 0 0 0 0 
0 0 0 0 0 0 0 0 0 
0 0 0 0 0 0 0 0 0 
0 0 0 0 0 0 0 0 0 
0 0 0 0 0 0 0 0 0 
0 0 0 0 0 0 0 0 0 
0 0 0 0 0 0 0 0 0 
0 0 0 0 0 0 0 0 0 
0 0 0 0 0 0 0 0 0 
0 0 0 0 0 0 0 0 0 
0 0 0 0 0 0 0 0 0 
0 0 0 0 0 0 0 0 0 
0 0 0 0 0 0 0 0 0 
0 0 0 0 0 0 0 0 0 
0 0 0 0 0 0 0 0 0 
0 0 0 0 0 0 0 0 0 
0 0 0 0 0 0 0 0 0 
0 0 0 0 0 0 0 0 0 
0 0 0 0 0 0 0 0 0 
0 0 0 0 0 0 0 0 0 
0 0 0 0 0 0 0 0 0 
0 0 0 0 0 0 0 0 0 
0 0 0 0 0 0 0 0 0 
0 0 0 0 0 0 0 0 0 
0 0 0 0 0 0 0 0 0 
0 0 0 0 0 0 0 0 0 
0 0 0 0 0 0 0 0 0 
0 0 0 0 0 0 0 0 0 
0 0 0 0 0 0 0 0 0 
0 0 0 0 0 0 0 0 0 
0 0 0 0 0 0 0 0 0 
0 0 0 0 0 0 0 0 0 
0 0 0 0 0 0 0 0 0 
0 0 0 0 0 0 0 0 0 
0 0 0 0 0 0 0 0 0 
0 0 0 0 0 0 0 0 0 
0 0 0 0 0 0 0 0 0 
0 0 0 0 0 0 0 0 0 
0 0 0 0 0 0 0 0 0 
0 0 0 0 0 0 0 0 0 
0 0 0 0 0 0 0 0 0 
0 0 0 0 0 0 0 0 0 
0 0 0 0 0 0 0 0 0 
0 0 0 0 0 0 0 0 0 
0 0 0 0 0 0 0 0 0 
0 0 0 0 0 0 0 0 0 
0 0 0 0 0 0 0 0 0 
0 0 0 0 0 0 0 0 0 
0 0 0 0 0 0 0 0 0 
0 0 0 0 0 0 0 0 0 
0 0 0 0 0 0 0 0 0 
0 0 0 0 0 0 0 0 0 
0 0 0 0 0 0 0 0 0 
0 0 0 0 0 0 0 0 0 
0 0 0 0 0 0 0 0 0 
0 0 0 0 0 0 0 0 0 
0 0 0 0 0 0 0 0 0 
0 0 0 0 0 0 0 0 0 
0 0 0 0 0 0 0 0 0 
0 0 0 0 0 0 0 0 0 
0 0 0 0 0 0 0 0 0 
0 0 0 0 0 0 0 0 0 
0 0 0 0 0 0 0 0 0 
0 0 0 0 0 0 0 0 0 
0 0 0 0 0 0 0 0 0 
0 0 0 0 0 0 0 0 0 
0 0 0 0 0 0 0 0 0 
0 0 0 0 0 0 0 0 0 
0 0 0 0 0 0 0 0 0 
0 0 0 0 0 0 0 0 0 
0 0 0 0 0 0 0 0 0 
0 0 0 0 0 0 0 0 0 
0 0 0 0 0 0 0 0 0 
0 0 0 0 0 0 0 0 0 
0 0 0 0 0 0 0 0 0 
0 0 0 0 0 0 0 0 0 
0 0 0 0 0 0 0 0 0 
0 0 0 0 0 0 0 0 0 
0 0 0 0 0 0 0 0 0 
0 0 0 0 0 0 0 0 0 
0 0 0 0 0 0 0 0 0 
0 0 0 0 0 0 0 0 0 
0 0 0 0 0 0 0 0 0 
0 0 0 0 0 0 0 0 0 
0 0 0 0 0 0 0 0 0 
0 0 0 0 0 0 0 0 0 
0 0 0 0 0 0 0 0 0 
0 0 0 0 0 0 0 0 0 
0 0 0 0 0 0 0 0 0 
0 0 0 0 0 0 0 0 0 
0 0 0 0 0 0 0 0 0 
0 0 0 0 0 0 0 0 0 
0 0 0 0 0 0 0 0 0 
0 0 0 0 0 0 0 0 0 
0 0 0 0 0 0 0 0 0 
0 0 0 0 0 0 0 0 0 
0 0 0 0 0 0 0 0 0 
0 0 0 0 0 0 0 0 0 
0 0 0 0 0 0 0 0 0 
0 0 0 0 0 0 0 0 0 
0 0 0 0 0 0 0 0 0 
0 0 0 0 0 0 0 0 0 
0 0 0 0 0 0 0 0 0 
0 0 0 0 0 0 0 0 0 
0 0 0 0 0 0 0 0 0 
0 0 0 0 0 0 0 0 0 
0 0 0 0 0 0 0 0 0 
0 0 0 0 0 0 0 0 0 
0 0 0 0 0 0 0 0 0 
0 0 0 0 0 0 0 0 0 
0 0 0 0 0 0 0 0 0 
0 0 0 0 0 0 0 0 0 
0 0 0 0 0 0 0 0 0 
0 0 0 0 0 0 0 0 0 
0 0 0 0 0 0 0 0 0 
0 0 0 0 0 0 0 0 0 
0 0 0 0 0 0 0 0 0 
0 0 0 0 0 0 0 0 0 
0 0 0 0 0 0 0 0 0 
0 0 0 0 0 0 0 0 0 
0 0 0 0 0 0 0 0 0 
0 0 0 0 0 0 0 0 0 
0 0 0 0 0 0 0 0 0 
0 0 0 0 0 0 0 0 0 
0 0 0 0 0 0 0 0 0 
0 0 0 0 0 0 0 0 0 
0 0 0 0 0 0 0 0 0 
0 0 0 0 0 0 0 0 0 
0 0 0 0 0 0 0 0 0 
0 0 0 0 0 0 0 0 0 
0 0 0 0 0 0 0 0 0 
0 0 0 0 0 0 0 0 0 
0 0 0 0 0 0 0 0 0 
0 0 0 0 0 0 0 0 0 
0 0 0 0 0 0 0 0 0 
0 0 0 0 0 0 0 0 0 
0 0 0 0 0 0 0 0 0 
0 0 0 0 0 0 0 0 0 
0 0 0 0 0 0 0 0 0 
0 0 0 0 0 0 0 0 0 
0 0 0 0 0 0 0 0 0 
0 0 0 0 0 0 0 0 0 
0 0 0 0 0 0 0 0 0 
0 0 0 0 0 0 0 0 0 
0 0 0 0 0 0 0 0 0 
0 0 0 0 0 0 0 0 0 
0 0 0 0 0 0 0 0 0 
0 0 0 0 0 0 0 0 0 
0 0 0 0 0 0 0 0 0 
0 0 0 0 0 0 0 0 0 
0 0 0 0 0 0 0 0 0 
0 0 0 0 0 0 0 0 0 
0 0 0 0 0 0 0 0 0 
0 0 0 0 0 0 0 0 0 
0 0 0 0 0 0 0 0 0 
0 0 0 0 0 0 0 0 0 
0 0 0 0 0 0 0 0 0 
0 0 0 0 0 0 0 0 0 
0 0 0 0 0 0 0 0 0 
0 0 0 0 0 0 0 0 0 
0 0 0 0 0 0 0 0 0 
0 0 0 0 0 0 0 0 0 
0 0 0 0 0 0 0 0 0 
0 0 0 0 0 0 0 0 0 
0 0 0 0 0 0 0 0 0 
0 0 0 0 0 0 0 0 0 
0 0 0 0 0 0 0 0 0 
0 0 0 0 0 0 0 0 0 
0 0 0 0 0 0 0 0 0 
0 0 0 0 0 0 0 0 0 
0 0 0 0 0 0 0 0 0 
0 0 0 0 0 0 0 0 0 
0 0 0 0 0 0 0 0 0 
0 0 0 0 0 0 0 0 0 
0 0 0 0 0 0 0 0 0 
0 0 0 0 0 0 0 0 0 
0 0 0 0 0 0 0 0 0 
0 0 0 0 0 0 0 0 0 
0 0 0 0 0 0 0 0 0 
0 0 0 0 0 0 0 0 0 
0 0 0 0 0 0 0 0 0 
0 0 0 0 0 0 0 0 0 
0 0 0 0 0 0 0 0 0 
0 0 0 0 0 0 0 0 0 
0 0 0 0 0 0 0 0 0 
0 0 0 0 0 0 0 0 0 
0 0 0 0 0 0 0 0 0 
0 0 0 0 0 0 0 0 0 
0 0 0 0 0 0 0 0 0 
0 0 0 0 0 0 0 0 0 
0 0 0 0 0 0 0 0 0 
0 0 0 0 0 0 0 0 0 
0 0 0 0 0 0 0 0 0 
0 0 0 0 0 0 0 0 0 
0 0 0 0 0 0 0 0 0 
0 0 0 0 0 0 0 0 0 
0 0 0 0 0 0 0 0 0 
0 0 0 0 0 0 0 0 0 
0 0 0 0 0 0 0 0 0 
0 0 0 0 0 0 0 0 0 
0 0 0 0 0 0 0 0 0 
0 0 0 0 0 0 0 0 0 
0 0 0 0 0 0 0 0 0 
0 0 0 0 0 0 0 0 0 
0 0 0 0 0 0 0 0 0 
0 0 0 0 0 0 0 0 0 
0 0 0 0 0 0 0 0 0 
0 0 0 0 0 0 0 0 0 
0 0 0 0 0 0 0 0 0 
0 0 0 0 0 0 0 0 0 
0 0 0 0 0 0 0 0 0 
0 0 0 0 0 0 0 0 0 
0 0 0 0 0 0 0 0 0 
0 0 0 0 0 0 0 0 0 
0 0 0 0 0 0 0 0 0 
0 0 0 0 0 0 0 0 0 
0 0 0 0 0 0 0 0 0 
0 0 0 0 0 0 0 0 0 
0 0 0 0 0 0 0 0 0 
0 0 0 0 0 0 0 0 0 
0 0 0 0 0 0 0 0 0 
0 0 0 0 0 0 0 0 0 
0 0 0 0 0 0 0 0 0 
0 0 0 0 0 0 0 0 0 
0 0 0 0 0 0 0 0 0 
0 0 0 0 0 0 0 0 0 
0 0 0 0 0 0 0 0 0 
0 0 0 0 0 0 0 0 0 
0 0 0 0 0 0 0 0 0 
0 0 0 0 0 0 0 0 0 
0 0 0 0 0 0 0 0 0 
0 0 0 0 0 0 0 0 0 
0 0 0 0 0 0 0 0 0 
0 0 0 0 0 0 0 0 0 
0 0 0 0 0 0 0 0 0 
0 0 0 0 0 0 0 0 0 
0 0 0 0 0 0 0 0 0 
0 0 0 0 0 0 0 0 0 
0 0 0 0 0 0 0 0 0 
0 0 0 0 0 0 0 0 0 
0 0 0 0 0 0 0 0 0 
0 0 0 0 0 0 0 0 0 
0 0 0 0 0 0 0 0 0 
0 0 0 0 0 0 0 0 0 
0 0 0 0 0 0 0 0 0 
0 0 0 0 0 0 0 0 0 
0 0 0 0 0 0 0 0 0 
0 0 0 0 0 0 0 0 0 
0 0 0 0 0 0 0 0 0 
0 0 0 0 0 0 0 0 0 
0 0 0 0 0 0 0 0 0 
0 0 0 0 0 0 0 0 0 
0 0 0 0 0 0 0 0 0 
0 0 0 0 0 0 0 0 0 
0 0 0 0 0 0 0 0 0 
0 0 0 0 0 0 0 0 0 
0 0 0 0 0 0 0 0 0 
0 0 0 0 0 0 0 0 0 
0 0 0 0 0 0 0 0 0 
0 0 0 0 0 0 0 0 0 
0 0 0 0 0 0 0 0 0 
0 0 0 0 0 0 0 0 0 
0 0 0 0 0 0 0 0 0 
0 0 0 0 0 0 0 0 0 
0 0 0 0 0 0 0 0 0 
0 0 0 0 0 0 0 0 0 
0 0 0 0 0 0 0 0 0 
0 0 0 0 0 0 0 0 0 
0 0 0 0 0 0 0 0 0 
0 0 0 0 0 0 0 0 0 
0 0 0 0 0 0 0 0 0 
0 0 0 0 0 0 0 0 0 
0 0 0 0 0 0 0 0 0 
0 0 0 0 0 0 0 0 0 
0 0 0 0 0 0 0 0 0 
0 0 0 0 0 0 0 0 0 
0 0 0 0 0 0 0 0 0 
0 0 0 0 0 0 0 0 0 
0 0 0 0 0 0 0 0 0 
0 0 0 0 0 0 0 0 0 
0 0 0 0 0 0 0 0 0 
0 0 0 0 0 0 0 0 0 
0 0 0 0 0 0 0 0 0 
0 0 0 0 0 0 0 0 0 
0 0 0 0 0 0 0 0 0 
0 0 0 0 0 0 0 0 0 
0 0 0 0 0 0 0 0 0 
0 0 0 0 0 0 0 0 0 
0 0 0 0 0 0 0 0 0 
0 0 0 0 0 0 0 0 0 
0 0 0 0 0 0 0 0 0 
0 0 0 0 0 0 0 0 0 
0 0 0 0 0 0 0 0 0 
0 0 0 0 0 0 0 0 0 
0 0 0 0 0 0 0 0 0 
0 0 0 0 0 0 0 0 0 
0 0 0 0 0 0 0 0 0 
0 0 0 0 0 0 0 0 0 
0 0 0 0 0 0 0 0 0 
0 0 0 0 0 0 0 0 0 
0 0 0 0 0 0 0 0 0 
0 0 0 0 0 0 0 0 0 
0 0 0 0 0 0 0 0 0 
0 0 0 0 0 0 0 0 0 
0 0 0 0 0 0 0 0 0 
0 0 0 0 0 0 0 0 0 
0 0 0 0 0 0 0 0 0 
0 0 0 0 0 0 0 0 0 
0 0 0 0 0 0 0 0 0 
0 0 0 0 0 0 0 0 0 
0 0 0 0 0 0 0 0 0 
0 0 0 0 0 0 0 0 0 
0 0 0 0 0 0 0 0 0 
0 0 0 0 0 0 0 0 0 
0 0 0 0 0 0 0 0 0 
0 0 0 0 0 0 0 0 0 
0 0 0 0 0 0 0 0 0 
0 0 0 0 0 0 0 0 0 
0 0 0 0 0 0 0 0 0 
0 0 0 0 0 0 0 0 0 
0 0 0 0 0 0 0 0 0 
0 0 0 0 0 0 0 0 0 
0 0 0 0 0 0 0 0 0 
0 0 0 0 0 0 0 0 0 
0 0 0 0 0 0 0 0 0 
0 0 0 0 0 0 0 0 0 
0 0 0 0 0 0 0 0 0 
0 0 0 0 0 0 0 0 0 
0 0 0 0 0 0 0 0 0 
0 0 0 0 0 0 0 0 0 
0 0 0 0 0 0 0 0 0 
0 0 0 0 0 0 0 0 0 
0 0 0 0 0 0 0 0 0 
0 0 0 0 0 0 0 0 0 
0 0 0 0 0 0 0 0 0 
0 0 0 0 0 0 0 0 0 
0 0 0 0 0 0 0 0 0 
0 0 0 0 0 0 0 0 0 
0 0 0 0 0 0 0 0 0 
0 0 0 0 0 0 0 0 0 
0 0 0 0 0 0 0 0 0 
0 0 0 0 0 0 0 0 0 
0 0 0 0 0 0 0 0 0 
0 0 0 0 0 0 0 0 0 
0 0 0 0 0 0 0 0 0 
0 0 0 0 0 0 0 0 0 
0 0 0 0 0 0 0 0 0 
0 0 0 0 0 0 0 0 0 
0 0 0 0 0 0 0 0 0 
0 0 0 0 0 0 0 0 0 
0 0 0 0 0 0 0 0 0 
0 0 0 0 0 0 0 0 0 
0 0 0 0 0 0 0 0 0 
0 0 0 0 0 0 0 0 0 
0 0 0 0 0 0 0 0 0 
0 0 0 0 0 0 0 0 0 
0 0 0 0 0 0 0 0 0 
0 0 0 0 0 0 0 0 0 
0 0 0 0 0 0 0 0 0 
0 0 0 0 0 0 0 0 0 
0 0 0 0 0 0 0 0 0 
0 0 0 0 0 0 0 0 0 
0 0 0 0 0 0 0 0 0 
0 0 0 0 0 0 0 0 0 
0 0 0 0 0 0 0 0 0 
0 0 0 0 0 0 0 0 0 
0 0 0 0 0 0 0 0 0 
0 0 0 0 0 0 0 0 0 
0 0 0 0 0 0 0 0 0 
0 0 0 0 0 0 0 0 0 
0 0 0 0 0 0 0 0 0 
0 0 0 0 0 0 0 0 0 
0 0 0 0 0 0 0 0 0 
0 0 0 0 0 0 0 0 0 
0 0 0 0 0 0 0 0 0 
0 0 0 0 0 0 0 0 0 
0 0 0 0 0 0 0 0 0 
0 0 0 0 0 0 0 0 0 
0 0 0 0 0 0 0 0 0 
0 0 0 0 0 0 0 0 0 
0 0 0 0 0 0 0 0 0 
0 0 0 0 0 0 0 0 0 
0 0 0 0 0 0 0 0 0 
0 0 0 0 0 0 0 0 0 
0 0 0 0 0 0 0 0 0 
0 0 0 0 0 0 0 0 0 
0 0 0 0 0 0 0 0 0 
0 0 0 0 0 0 0 0 0 
0 0 0 0 0 0 0 0 0 
0 0 0 0 0 0 0 0 0 
0 0 0 0 0 0 0 0 0 
0 0 0 0 0 0 0 0 0 
0 0 0 0 0 0 0 0 0 
0 0 0 0 0 0 0 0 0 
0 0 0 0 0 0 0 0 0 
0 0 0 0 0 0 0 0 0 
0 0 0 0 0 0 0 0 0 
0 0 0 0 0 0 0 0 0 
0 0 0 0 0 0 0 0 0 
0 0 0 0 0 0 0 0 0 
0 0 0 0 0 0 0 0 0 
0 0 0 0 0 0 0 0 0 
0 0 0 0 0 0 0 0 0 
0 0 0 0 0 0 0 0 0 
0 0 0 0 0 0 0 0 0 
0 0 0 0 0 0 0 0 0 
0 0 0 0 0 0 0 0 0 
0 0 0 0 0 0 0 0 0 
0 0 0 0 0 0 0 0 0 
0 0 0 0 0 0 0 0 0 
0 0 0 0 0 0 0 0 0 
0 0 0 0 0 0 0 0 0 
0 0 0 0 0 0 0 0 0 
0 0 0 0 0 0 0 0 0 
0 0 0 0 0 0 0 0 0 
0 0 0 0 0 0 0 0 0 
0 0 0 0 0 0 0 0 0 
0 0 0 0 0 0 0 0 0 
0 0 0 0 0 0 0 0 0 
0 0 0 0 0 0 0 0 0 
0 0 0 0 0 0 0 0 0 
0 0 0 0 0 0 0 0 0 
0 0 0 0 0 0 0 0 0 
0 0 0 0 0 0 0 0 0 
0 0 0 0 0 0 0 0 0 
0 0 0 0 0 0 0 0 0 
0 0 0 0 0 0 0 0 0 
0 0 0 0 0 0 0 0 0 
0 0 0 0 0 0 0 0 0 
0 0 0 0 0 0 0 0 0 
0 0 0 0 0 0 0 0 0 
0 0 0 0 0 0 0 0 0 
0 0 0 0 0 0 0 0 0 
0 0 0 0 0 0 0 0 0 
0 0 0 0 0 0 0 0 0 
0 0 0 0 0 0 0 0 0 
0 0 0 0 0 0 0 0 0 
0 0 0 0 0 0 0 0 0 
0 0 0 0 0 0 0 0 0 
0 0 0 0 0 0 0 0 0 
0 0 0 0 0 0 0 0 0 
0 0 0 0 0 0 0 0 0 
0 0 0 0 0 0 0 0 0 
0 0 0 0 0 0 0 0 0 
0 0 0 0 0 0 0 0 0 
0 0 0 0 0 0 0 0 0 
0 0 0 0 0 0 0 0 0 
0 0 0 0 0 0 0 0 0 
0 0 0 0 0 0 0 0 0 
0 0 0 0 0 0 0 0 0 
0 0 0 0 0 0 0 0 0 
0 0 0 0 0 0 0 0 0 
0 0 0 0 0 0 0 0 0 
0 0 0 0 0 0 0 0 0 
0 0 0 0 0 0 0 0 0 
0 0 0 0 0 0 0 0 0 
0 0 0 0 0 0 0 0 0 
0 0 0 0 0 0 0 0 0 
0 0 0 0 0 0 0 0 0 
0 0 0 0 0 0 0 0 0 
0 0 0 0 0 0 0 0 0 
0 0 0 0 0 0 0 0 0 
0 0 0 0 0 0 0 0 0 
0 0 0 0 0 0 0 0 0 
0 0 0 0 0 0 0 0 0 
0 0 0 0 0 0 0 0 0 
0 0 0 0 0 0 0 0 0 
0 0 0 0 0 0 0 0 0 
0 0 0 0 0 0 0 0 0 
0 0 0 0 0 0 0 0 0 
0 0 0 0 0 0 0 0 0 
0 0 0 0 0 0 0 0 0 
0 0 0 0 0 0 0 0 0 
0 0 0 0 0 0 0 0 0 
0 0 0 0 0 0 0 0 0 
0 0 0 0 0 0 0 0 0 
0 0 0 0 0 0 0 0 0 
0 0 0 0 0 0 0 0 0 
0 0 0 0 0 0 0 0 0 
0 0 0 0 0 0 0 0 0 
0 0 0 0 0 0 0 0 0 
0 0 0 0 0 0 0 0 0 
0 0 0 0 0 0 0 0 0 
0 0 0 0 0 0 0 0 0 
0 0 0 0 0 0 0 0 0 
0 0 0 0 0 0 0 0 0 
0 0 0 0 0 0 0 0 0 
0 0 0 0 0 0 0 0 0 
0 0 0 0 0 0 0 0 0 
0 0 0 0 0 0 0 0 0 
0 0 0 0 0 0 0 0 0 
0 0 0 0 0 0 0 0 0 
0 0 0 0 0 0 0 0 0 
0 0 0 0 0 0 0 0 0 
0 0 0 0 0 0 0 0 0 
0 0 0 0 0 0 0 0 0 
0 0 0 0 0 0 0 0 0 
0 0 0 0 0 0 0 0 0 
0 0 0 0 0 0 0 0 0 
0 0 0 0 0 0 0 0 0 
0 0 0 0 0 0 0 0 0 
0 0 0 0 0 0 0 0 0 
0 0 0 0 0 0 0 0 0 
0 0 0 0 0 0 0 0 0 
0 0 0 0 0 0 0 0 0 
0 0 0 0 0 0 0 0 0 
0 0 0 0 0 0 0 0 0 
0 0 0 0 0 0 0 0 0 
0 0 0 0 0 0 0 0 0 
0 0 0 0 0 0 0 0 0 
0 0 0 0 0 0 0 0 0 
0 0 0 0 0 0 0 0 0 
0 0 0 0 0 0 0 0 0 
0 0 0 0 0 0 0 0 0 
0 0 0 0 0 0 0 0 0 
0 0 0 0 0 0 0 0 0 
0 0 0 0 0 0 0 0 0 
0 0 0 0 0 0 0 0 0 
0 0 0 0 0 0 0 0 0 
0 0 0 0 0 0 0 0 0 
0 0 0 0 0 0 0 0 0 
0 0 0 0 0 0 0 0 0 
0 0 0 0 0 0 0 0 0 
0 0 0 0 0 0 0 0 0 
0 0 0 0 0 0 0 0 0 
0 0 0 0 0 0 0 0 0 
0 0 0 0 0 0 0 0 0 
0 0 0 0 0 0 0 0 0 
0 0 0 0 0 0 0 0 0 
0 0 0 0 0 0 0 0 0 
0 0 0 0 0 0 0 0 0 
0 0 0 0 0 0 0 0 0 
0 0 0 0 0 0 0 0 0 
0 0 0 0 0 0 0 0 0 
0 0 0 0 0 0 0 0 0 
0 0 0 0 0 0 0 0 0 
0 0 0 0 0 0 0 0 0 
0 0 0 0 0 0 0 0 0 
0 0 0 0 0 0 0 0 0 
0 0 0 0 0 0 0 0 0 
0 0 0 0 0 0 0 0 0 
0 0 0 0 0 0 0 0 0 
0 0 0 0 0 0 0 0 0 
0 0 0 0 0 0 0 0 0 
0 0 0 0 0 0 0 0 0 
0 0 0 0 0 0 0 0 0 
0 0 0 0 0 0 0 0 0 
0 0 0 0 0 0 0 0 0 
0 0 0 0 0 0 0 0 0 
0 0 0 0 0 0 0 0 0 
0 0 0 0 0 0 0 0 0 
0 0 0 0 0 0 0 0 0 
0 0 0 0 0 0 0 0 0 
0 0 0 0 0 0 0 0 0 
0 0 0 0 0 0 0 0 0 
0 0 0 0 0 0 0 0 0 
0 0 0 0 0 0 0 0 0 
0 0 0 0 0 0 0 0 0 
0 0 0 0 0 0 0 0 0 
0 0 0 0 0 0 0 0 0 
0 0 0 0 0 0 0 0 0 
0 0 0 0 0 0 0 0 0 
0 0 0 0 0 0 0 0 0 
0 0 0 0 0 0 0 0 0 
0 0 0 0 0 0 0 0 0 
0 0 0 0 0 0 0 0 0 
0 0 0 0 0 0 0 0 0 
0 0 0 0 0 0 0 0 0 
0 0 0 0 0 0 0 0 0 
0 0 0 0 0 0 0 0 0 
0 0 0 0 0 0 0 0 0 
0 0 0 0 0 0 0 0 0 
0 0 0 0 0 0 0 0 0 
0 0 0 0 0 0 0 0 0 
0 0 0 0 0 0 0 0 0 
0 0 0 0 0 0 0 0 0 
0 0 0 0 0 0 0 0 0 
0 0 0 0 0 0 0 0 0 
0 0 0 0 0 0 0 0 0 
0 0 0 0 0 0 0 0 0 
0 0 0 0 0 0 0 0 0 
0 0 0 0 0 0 0 0 0 
0 0 0 0 0 0 0 0 0 
0 0 0 0 0 0 0 0 0 
0 0 0 0 0 0 0 0 0 
0 0 0 0 0 0 0 0 0 
0 0 0 0 0 0 0 0 0 
0 0 0 0 0 0 0 0 0 
0 0 0 0 0 0 0 0 0 
0 0 0 0 0 0 0 0 0 
0 0 0 0 0 0 0 0 0 
0 0 0 0 0 0 0 0 0 
0 0 0 0 0 0 0 0 0 
0 0 0 0 0 0 0 0 0 
0 0 0 0 0 0 0 0 0 
0 0 0 0 0 0 0 0 0 
0 0 0 0 0 0 0 0 0 
0 0 0 0 0 0 0 0 0 
0 0 0 0 0 0 0 0 0 
0 0 0 0 0 0 0 0 0 
0 0 0 0 0 0 0 0 0 
0 0 0 0 0 0 0 0 0 
0 0 0 0 0 0 0 0 0 
0 0 0 0 0 0 0 0 0 
0 0 0 0 0 0 0 0 0 
0 0 0 0 0 0 0 0 0 
0 0 0 0 0 0 0 0 0 
0 0 0 0 0 0 0 0 0 
0 0 0 0 0 0 0 0 0 
0 0 0 0 0 0 0 0 0 
0 0 0 0 0 0 0 0 0 
0 0 0 0 0 0 0 0 0 
0 0 0 0 0 0 0 0 0 
0 0 0 0 0 0 0 0 0 
0 0 0 0 0 0 0 0 0 
0 0 0 0 0 0 0 0 0 
0 0 0 0 0 0 0 0 0 
0 0 0 0 0 0 0 0 0 
0 0 0 0 0 0 0 0 0 
0 0 0 0 0 0 0 0 0 
0 0 0 0 0 0 0 0 0 
0 0 0 0 0 0 0 0 0 
0 0 0 0 0 0 0 0 0 
0 0 0 0 0 0 0 0 0 
0 0 0 0 0 0 0 0 0 
0 0 0 0 0 0 0 0 0 
0 0 0 0 0 0 0 0 0 
0 0 0 0 0 0 0 0 0 
0 0 0 0 0 0 0 0 0 
0 0 0 0 0 0 0 0 0 
0 0 0 0 0 0 0 0 0 
0 0 0 0 0 0 0 0 0 
0 0 0 0 0 0 0 0 0 
0 0 0 0 0 0 0 0 0 
0 0 0 0 0 0 0 0 0 
0 0 0 0 0 0 0 0 0 
0 0 0 0 0 0 0 0 0 
0 0 0 0 0 0 0 0 0 
0 0 0 0 0 0 0 0 0 
0 0 0 0 0 0 0 0 0 
0 0 0 0 0 0 0 0 0 
0 0 0 0 0 0 0 0 0 
0 0 0 0 0 0 0 0 0 
0 0 0 0 0 0 0 0 0 
0 0 0 0 0 0 0 0 0 
0 0 0 0 0 0 0 0 0 
0 0 0 0 0 0 0 0 0 
0 0 0 0 0 0 0 0 0 
0 0 0 0 0 0 0 0 0 
0 0 0 0 0 0 0 0 0 
0 0 0 0 0 0 0 0 0 
0 0 0 0 0 0 0 0 0 
0 0 0 0 0 0 0 0 0 
0 0 0 0 0 0 0 0 0 
0 0 0 0 0 0 0 0 0 
0 0 0 0 0 0 0 0 0 
0 0 0 0 0 0 0 0 0 
0 0 0 0 0 0 0 0 0 
0 0 0 0 0 0 0 0 0 
0 0 0 0 0 0 0 0 0 
0 0 0 0 0 0 0 0 0 
0 0 0 0 0 0 0 0 0 
0 0 0 0 0 0 0 0 0 
0 0 0 0 0 0 0 0 0 
0 0 0 0 0 0 0 0 0 
0 0 0 0 0 0 0 0 0 
0 0 0 0 0 0 0 0 0 
0 0 0 0 0 0 0 0 0 
0 0 0 0 0 0 0 0 0 
0 0 0 0 0 0 0 0 0 
0 0 0 0 0 0 0 0 0 
0 0 0 0 0 0 0 0 0 
0 0 0 0 0 0 0 0 0 
0 0 0 0 0 0 0 0 0 
0 0 0 0 0 0 0 0 0 
0 0 0 0 0 0 0 0 0 
0 0 0 0 0 0 0 0 0 
0 0 0 0 0 0 0 0 0 
0 0 0 0 0 0 0 0 0 
0 0 0 0 0 0 0 0 0 
0 0 0 0 0 0 0 0 0 
0 0 0 0 0 0 0 0 0 
0 0 0 0 0 0 0 0 0 
0 0 0 0 0 0 0 0 0 
0 0 0 0 0 0 0 0 0 
0 0 0 0 0 0 0 0 0 
0 0 0 0 0 0 0 0 0 
0 0 0 0 0 0 0 0 0 
0 0 0 0 0 0 0 0 0 
0 0 0 0 0 0 0 0 0 
0 0 0 0 0 0 0 0 0 
0 0 0 0 0 0 0 0 0 
0 0 0 0 0 0 0 0 0 
0 0 0 0 0 0 0 0 0 
0 0 0 0 0 0 0 0 0 
0 0 0 0 0 0 0 0 0 
0 0 0 0 0 0 0 0 0 
0 0 0 0 0 0 0 0 0 
0 0 0 0 0 0 0 0 0 
0 0 0 0 0 0 0 0 0 
0 0 0 0 0 0 0 0 0 
0 0 0 0 0 0 0 0 0 
0 0 0 0 0 0 0 0 0 
0 0 0 0 0 0 0 0 0 
0 0 0 0 0 0 0 0 0 
0 0 0 0 0 0 0 0 0 
0 0 0 0 0 0 0 0 0 
0 0 0 0 0 0 0 0 0 
0 0 0 0 0 0 0 0 0 
0 0 0 0 0 0 0 0 0 
0 0 0 0 0 0 0 0 0 
0 0 0 0 0 0 0 0 0 
0 0 0 0 0 0 0 0 0 
0 0 0 0 0 0 0 0 0 
0 0 0 0 0 0 0 0 0 
0 0 0 0 0 0 0 0 0 
0 0 0 0 0 0 0 0 0 
0 0 0 0 0 0 0 0 0 
0 0 0 0 0 0 0 0 0 
0 0 0 0 0 0 0 0 0 
0 0 0 0 0 0 0 0 0 
0 0 0 0 0 0 0 0 0 
0 0 0 0 0 0 0 0 0 
0 0 0 0 0 0 0 0 0 
0 0 0 0 0 0 0 0 0 
0 0 0 0 0 0 0 0 0 
0 0 0 0 0 0 0 0 0 
0 0 0 0 0 0 0 0 0 
0 0 0 0 0 0 0 0 0 
0 0 0 0 0 0 0 0 0 
0 0 0 0 0 0 0 0 0 
0 0 0 0 0 0 0 0 0 
0 0 0 0 0 0 0 0 0 
0 0 0 0 0 0 0 0 0 
0 0 0 0 0 0 0 0 0 
0 0 0 0 0 0 0 0 0 
0 0 0 0 0 0 0 0 0 
0 0 0 0 0 0 0 0 0 
0 0 0 0 0 0 0 0 0 
0 0 0 0 0 0 0 0 0 
0 0 0 0 0 0 0 0 0 
0 0 0 0 0 0 0 0 0 
0 0 0 0 0 0 0 0 0 
0 0 0 0 0 0 0 0 0 
0 0 0 0 0 0 0 0 0 
0 0 0 0 0 0 0 0 0 
0 0 0 0 0 0 0 0 0 
0 0 0 0 0 0 0 0 0 
0 0 0 0 0 0 0 0 0 
0 0 0 0 0 0 0 0 0 
0 0 0 0 0 0 0 0 0 
0 0 0 0 0 0 0 0 0 
0 0 0 0 0 0 0 0 0 
0 0 0 0 0 0 0 0 0 
0 0 0 0 0 0 0 0 0 
0 0 0 0 0 0 0 0 0 
0 0 0 0 0 0 0 0 0 
0 0 0 0 0 0 0 0 0 
0 0 0 0 0 0 0 0 0 
0 0 0 0 0 0 0 0 0 
0 0 0 0 0 0 0 0 0 
0 0 0 0 0 0 0 0 0 
0 0 0 0 0 0 0 0 0 
0 0 0 0 0 0 0 0 0 
0 0 0 0 0 0 0 0 0 
0 0 0 0 0 0 0 0 0 
0 0 0 0 0 0 0 0 0 
0 0 0 0 0 0 0 0 0 
0 0 0 0 0 0 0 0 0 
0 0 0 0 0 0 0 0 0 
0 0 0 0 0 0 0 0 0 
0 0 0 0 0 0 0 0 0 
0 0 0 0 0 0 0 0 0 
0 0 0 0 0 0 0 0 0 
0 0 0 0 0 0 0 0 0 
0 0 0 0 0 0 0 0 0 
0 0 0 0 0 0 0 0 0 
0 0 0 0 0 0 0 0 0 
0 0 0 0 0 0 0 0 0 
0 0 0 0 0 0 0 0 0 
0 0 0 0 0 0 0 0 0 
0 0 0 0 0 0 0 0 0 
0 0 0 0 0 0 0 0 0 
0 0 0 0 0 0 0 0 0 
0 0 0 0 0 0 0 0 0 
0 0 0 0 0 0 0 0 0 
0 0 0 0 0 0 0 0 0 
0 0 0 0 0 0 0 0 0 
0 0 0 0 0 0 0 0 0 
0 0 0 0 0 0 0 0 0 
0 0 0 0 0 0 0 0 0 
0 0 0 0 0 0 0 0 0 
0 0 0 0 0 0 0 0 0 
0 0 0 0 0 0 0 0 0 
0 0 0 0 0 0 0 0 0 
0 0 0 0 0 0 0 0 0 
0 0 0 0 0 0 0 0 0 
0 0 0 0 0 0 0 0 0 
0 0 0 0 0 0 0 0 0 
0 0 0 0 0 0 0 0 0 
0 0 0 0 0 0 0 0 0 
0 0 0 0 0 0 0 0 0 
0 0 0 0 0 0 0 0 0 
0 0 0 0 0 0 0 0 0 
0 0 0 0 0 0 0 0 0 
0 0 0 0 0 0 0 0 0 
0 0 0 0 0 0 0 0 0 
0 0 0 0 0 0 0 0 0 
0 0 0 0 0 0 0 0 0 
0 0 0 0 0 0 0 0 0 
0 0 0 0 0 0 0 0 0 
0 0 0 0 0 0 0 0 0 
0 0 0 0 0 0 0 0 0 
0 0 0 0 0 0 0 0 0 
0 0 0 0 0 0 0 0 0 
0 0 0 0 0 0 0 0 0 
0 0 0 0 0 0 0 0 0 
0 0 0 0 0 0 0 0 0 
0 0 0 0 0 0 0 0 0 
0 0 0 0 0 0 0 0 0 
0 0 0 0 0 0 0 0 0 
0 0 0 0 0 0 0 0 0 
0 0 0 0 0 0 0 0 0 
0 0 0 0 0 0 0 0 0 
0 0 0 0 0 0 0 0 0 
0 0 0 0 0 0 0 0 0 
0 0 0 0 0 0 0 0 0 
0 0 0 0 0 0 0 0 0 
0 0 0 0 0 0 0 0 0 
0 0 0 0 0 0 0 0 0 
0 0 0 0 0 0 0 0 0 
0 0 0 0 0 0 0 0 0 
0 0 0 0 0 0 0 0 0 
0 0 0 0 0 0 0 0 0 
0 0 0 0 0 0 0 0 0 
0 0 0 0 0 0 0 0 0 
0 0 0 0 0 0 0 0 0 
0 0 0 0 0 0 0 0 0 
0 0 0 0 0 0 0 0 0 
0 0 0 0 0 0 0 0 0 
0 0 0 0 0 0 0 0 0 
0 0 0 0 0 0 0 0 0 
0 0 0 0 0 0 0 0 0 
0 0 0 0 0 0 0 0 0 
0 0 0 0 0 0 0 0 0 
0 0 0 0 0 0 0 0 0 
0 0 0 0 0 0 0 0 0 
0 0 0 0 0 0 0 0 0 
0 0 0 0 0 0 0 0 0 
0 0 0 0 0 0 0 0 0 
0 0 0 0 0 0 0 0 0 
0 0 0 0 0 0 0 0 0 
0 0 0 0 0 0 0 0 0 
0 0 0 0 0 0 0 0 0 
0 0 0 0 0 0 0 0 0 
0 0 0 0 0 0 0 0 0 
0 0 0 0 0 0 0 0 0 
0 0 0 0 0 0 0 0 0 
0 0 0 0 0 0 0 0 0 
0 0 0 0 0 0 0 0 0 
0 0 0 0 0 0 0 0 0 
0 0 0 0 0 0 0 0 0 
0 0 0 0 0 0 0 0 0 
0 0 0 0 0 0 0 0 0 
0 0 0 0 0 0 0 0 0 
0 0 0 0 0 0 0 0 0 
0 0 0 0 0 0 0 0 0 
0 0 0 0 0 0 0 0 0 
0 0 0 0 0 0 0 0 0 
0 0 0 0 0 0 0 0 0 
0 0 0 0 0 0 0 0 0 
0 0 0 0 0 0 0 0 0 
0 0 0 0 0 0 0 0 0 
0 0 0 0 0 0 0 0 0 
0 0 0 0 0 0 0 0 0 
0 0 0 0 0 0 0 0 0 
0 0 0 0 0 0 0 0 0 
0 0 0 0 0 0 0 0 0 
0 0 0 0 0 0 0 0 0 
0 0 0 0 0 0 0 0 0 
0 0 0 0 0 0 0 0 0 
0 0 0 0 0 0 0 0 0 
0 0 0 0 0 0 0 0 0 
0 0 0 0 0 0 0 0 0 
0 0 0 0 0 0 0 0 0 
0 0 0 0 0 0 0 0 0 
0 0 0 0 0 0 0 0 0 
0 0 0 0 0 0 0 0 0 
0 0 0 0 0 0 0 0 0 
0 0 0 0 0 0 0 0 0 
0 0 0 0 0 0 0 0 0 
0 0 0 0 0 0 0 0 0 
0 0 0 0 0 0 0 0 0 
0 0 0 0 0 0 0 0 0 
0 0 0 0 0 0 0 0 0 
0 0 0 0 0 0 0 0 0 
0 0 0 0 0 0 0 0 0 
0 0 0 0 0 0 0 0 0 
0 0 0 0 0 0 0 0 0 
0 0 0 0 0 0 0 0 0 
0 0 0 0 0 0 0 0 0 
0 0 0 0 0 0 0 0 0 
0 0 0 0 0 0 0 0 0 
0 0 0 0 0 0 0 0 0 
0 0 0 0 0 0 0 0 0 
0 0 0 0 0 0 0 0 0 
0 0 0 0 0 0 0 0 0 
0 0 0 0 0 0 0 0 0 
0 0 0 0 0 0 0 0 0 
0 0 0 0 0 0 0 0 0 
0 0 0 0 0 0 0 0 0 
0 0 0 0 0 0 0 0 0 
0 0 0 0 0 0 0 0 0 
0 0 0 0 0 0 0 0 0 
0 0 0 0 0 0 0 0 0 
0 0 0 0 0 0 0 0 0 
0 0 0 0 0 0 0 0 0 
0 0 0 0 0 0 0 0 0 
0 0 0 0 0 0 0 0 0 
0 0 0 0 0 0 0 0 0 
0 0 0 0 0 0 0 0 0 
0 0 0 0 0 0 0 0 0 
0 0 0 0 0 0 0 0 0 
0 0 0 0 0 0 0 0 0 
0 0 0 0 0 0 0 0 0 
0 0 0 0 0 0 0 0 0 
0 0 0 0 0 0 0 0 0 
0 0 0 0 0 0 0 0 0 
0 0 0 0 0 0 0 0 0 
0 0 0 0 0 0 0 0 0 
0 0 0 0 0 0 0 0 0 
0 0 0 0 0 0 0 0 0 
0 0 0 0 0 0 0 0 0 
0 0 0 0 0 0 0 0 0 
0 0 0 0 0 0 0 0 0 
0 0 0 0 0 0 0 0 0 
0 0 0 0 0 0 0 0 0 
0 0 0 0 0 0 0 0 0 
0 0 0 0 0 0 0 0 0 
0 0 0 0 0 0 0 0 0 
0 0 0 0 0 0 0 0 0 
0 0 0 0 0 0 0 0 0 
0 0 0 0 0 0 0 0 0 
0 0 0 0 0 0 0 0 0 
0 0 0 0 0 0 0 0 0 
0 0 0 0 0 0 0 0 0 
0 0 0 0 0 0 0 0 0 
0 0 0 0 0 0 0 0 0 
0 0 0 0 0 0 0 0 0 
0 0 0 0 0 0 0 0 0 
0 0 0 0 0 0 0 0 0 
0 0 0 0 0 0 0 0 0 
0 0 0 0 0 0 0 0 0 
0 0 0 0 0 0 0 0 0 
0 0 0 0 0 0 0 0 0 
0 0 0 0 0 0 0 0 0 
0 0 0 0 0 0 0 0 0 
0 0 0 0 0 0 0 0 0 
0 0 0 0 0 0 0 0 0 
0 0 0 0 0 0 0 0 0 
0 0 0 0 0 0 0 0 0 
0 0 0 0 0 0 0 0 0 
0 0 0 0 0 0 0 0 0 
0 0 0 0 0 0 0 0 0 
0 0 0 0 0 0 0 0 0 
0 0 0 0 0 0 0 0 0 
0 0 0 0 0 0 0 0 0 
0 0 0 0 0 0 0 0 0 
0 0 0 0 0 0 0 0 0 
0 0 0 0 0 0 0 0 0 
0 0 0 0 0 0 0 0 0 
0 0 0 0 0 0 0 0 0 
0 0 0 0 0 0 0 0 0 
0 0 0 0 0 0 0 0 0 
0 0 0 0 0 0 0 0 0 
0 0 0 0 0 0 0 0 0 
0 0 0 0 0 0 0 0 0 
0 0 0 0 0 0 0 0 0 
0 0 0 0 0 0 0 0 0 
0 0 0 0 0 0 0 0 0 
0 0 0 0 0 0 0 0 0 
0 0 0 0 0 0 0 0 0 
0 0 0 0 0 0 0 0 0 
0 0 0 0 0 0 0 0 0 
0 0 0 0 0 0 0 0 0 
0 0 0 0 0 0 0 0 0 
0 0 0 0 0 0 0 0 0 
0 0 0 0 0 0 0 0 0 
0 0 0 0 0 0 0 0 0 
0 0 0 0 0 0 0 0 0 
0 0 0 0 0 0 0 0 0 
0 0 0 0 0 0 0 0 0 
0 0 0 0 0 0 0 0 0 
0 0 0 0 0 0 0 0 0 
0 0 0 0 0 0 0 0 0 
0 0 0 0 0 0 0 0 0 
0 0 0 0 0 0 0 0 0 
0 0 0 0 0 0 0 0 0 
0 0 0 0 0 0 0 0 0 
0 0 0 0 0 0 0 0 0 
0 0 0 0 0 0 0 0 0 
0 0 0 0 0 0 0 0 0 
0 0 0 0 0 0 0 0 0 
0 0 0 0 0 0 0 0 0 
0 0 0 0 0 0 0 0 0 
0 0 0 0 0 0 0 0 0 
0 0 0 0 0 0 0 0 0 
0 0 0 0 0 0 0 0 0 
0 0 0 0 0 0 0 0 0 
0 0 0 0 0 0 0 0 0 
0 0 0 0 0 0 0 0 0 
0 0 0 0 0 0 0 0 0 
0 0 0 0 0 0 0 0 0 
0 0 0 0 0 0 0 0 0 
0 0 0 0 0 0 0 0 0 
0 0 0 0 0 0 0 0 0 
0 0 0 0 0 0 0 0 0 
0 0 0 0 0 0 0 0 0 
0 0 0 0 0 0 0 0 0 
0 0 0 0 0 0 0 0 0 
0 0 0 0 0 0 0 0 0 
0 0 0 0 0 0 0 0 0 
0 0 0 0 0 0 0 0 0 
0 0 0 0 0 0 0 0 0 
0 0 0 0 0 0 0 0 0 
0 0 0 0 0 0 0 0 0 
0 0 0 0 0 0 0 0 0 
0 0 0 0 0 0 0 0 0 
0 0 0 0 0 0 0 0 0 
0 0 0 0 0 0 0 0 0 
0 0 0 0 0 0 0 0 0 
0 0 0 0 0 0 0 0 0 
0 0 0 0 0 0 0 0 0 
0 0 0 0 0 0 0 0 0 
0 0 0 0 0 0 0 0 0 
0 0 0 0 0 0 0 0 0 
0 0 0 0 0 0 0 0 0 
0 0 0 0 0 0 0 0 0 
0 0 0 0 0 0 0 0 0 
0 0 0 0 0 0 0 0 0 
0 0 0 0 0 0 0 0 0 
0 0 0 0 0 0 0 0 0 
0 0 0 0 0 0 0 0 0 
0 0 0 0 0 0 0 0 0 
0 0 0 0 0 0 0 0 0 
0 0 0 0 0 0 0 0 0 
0 0 0 0 0 0 0 0 0 
0 0 0 0 0 0 0 0 0 
0 0 0 0 0 0 0 0 0 
0 0 0 0 0 0 0 0 0 
0 0 0 0 0 0 0 0 0 
0 0 0 0 0 0 0 0 0 
0 0 0 0 0 0 0 0 0 
0 0 0 0 0 0 0 0 0 
0 0 0 0 0 0 0 0 0 
0 0 0 0 0 0 0 0 0 
0 0 0 0 0 0 0 0 0 
0 0 0 0 0 0 0 0 0 
0 0 0 0 0 0 0 0 0 
0 0 0 0 0 0 0 0 0 
0 0 0 0 0 0 0 0 0 
0 0 0 0 0 0 0 0 0 
0 0 0 0 0 0 0 0 0 
0 0 0 0 0 0 0 0 0 
0 0 0 0 0 0 0 0 0 
0 0 0 0 0 0 0 0 0 
0 0 0 0 0 0 0 0 0 
0 0 0 0 0 0 0 0 0 
0 0 0 0 0 0 0 0 0 
0 0 0 0 0 0 0 0 0 
0 0 0 0 0 0 0 0 0 
0 0 0 0 0 0 0 0 0 
0 0 0 0 0 0 0 0 0 
0 0 0 0 0 0 0 0 0 
0 0 0 0 0 0 0 0 0 
0 0 0 0 0 0 0 0 0 
0 0 0 0 0 0 0 0 0 
0 0 0 0 0 0 0 0 0 
0 0 0 0 0 0 0 0 0 
0 0 0 0 0 0 0 0 0 
0 0 0 0 0 0 0 0 0 
0 0 0 0 0 0 0 0 0 
0 0 0 0 0 0 0 0 0 
0 0 0 0 0 0 0 0 0 
0 0 0 0 0 0 0 0 0 
0 0 0 0 0 0 0 0 0 
0 0 0 0 0 0 0 0 0 
0 0 0 0 0 0 0 0 0 
0 0 0 0 0 0 0 0 0 
0 0 0 0 0 0 0 0 0 
0 0 0 0 0 0 0 0 0 
0 0 0 0 0 0 0 0 0 
0 0 0 0 0 0 0 0 0 
0 0 0 0 0 0 0 0 0 
0 0 0 0 0 0 0 0 0 
0 0 0 0 0 0 0 0 0 
0 0 0 0 0 0 0 0 0 
0 0 0 0 0 0 0 0 0 
0 0 0 0 0 0 0 0 0 
0 0 0 0 0 0 0 0 0 
0 0 0 0 0 0 0 0 0 
0 0 0 0 0 0 0 0 0 
0 0 0 0 0 0 0 0 0 
0 0 0 0 0 0 0 0 0 
0 0 0 0 0 0 0 0 0 
0 0 0 0 0 0 0 0 0 
0 0 0 0 0 0 0 0 0 
0 0 0 0 0 0 0 0 0 
0 0 0 0 0 0 0 0 0 
0 0 0 0 0 0 0 0 0 
0 0 0 0 0 0 0 0 0 
0 0 0 0 0 0 0 0 0 
0 0 0 0 0 0 0 0 0 
0 0 0 0 0 0 0 0 0 
0 0 0 0 0 0 0 0 0 
0 0 0 0 0 0 0 0 0 
0 0 0 0 0 0 0 0 0 
0 0 0 0 0 0 0 0 0 
0 0 0 0 0 0 0 0 0 
0 0 0 0 0 0 0 0 0 
0 0 0 0 0 0 0 0 0 
0 0 0 0 0 0 0 0 0 
0 0 0 0 0 0 0 0 0 
0 0 0 0 0 0 0 0 0 
0 0 0 0 0 0 0 0 0 
0 0 0 0 0 0 0 0 0 
0 0 0 0 0 0 0 0 0 
0 0 0 0 0 0 0 0 0 
0 0 0 0 0 0 0 0 0 
0 0 0 0 0 0 0 0 0 
0 0 0 0 0 0 0 0 0 
0 0 0 0 0 0 0 0 0 
0 0 0 0 0 0 0 0 0 
0 0 0 0 0 0 0 0 0 
0 0 0 0 0 0 0 0 0 
0 0 0 0 0 0 0 0 0 
0 0 0 0 0 0 0 0 0 
0 0 0 0 0 0 0 0 0 
0 0 0 0 0 0 0 0 0 
0 0 0 0 0 0 0 0 0 
0 0 0 0 0 0 0 0 0 
0 0 0 0 0 0 0 0 0 
0 0 0 0 0 0 0 0 0 
0 0 0 0 0 0 0 0 0 
0 0 0 0 0 0 0 0 0 
0 0 0 0 0 0 0 0 0 
0 0 0 0 0 0 0 0 0 
0 0 0 0 0 0 0 0 0 
0 0 0 0 0 0 0 0 0 
0 0 0 0 0 0 0 0 0 
0 0 0 0 0 0 0 0 0 
0 0 0 0 0 0 0 0 0 
0 0 0 0 0 0 0 0 0 
0 0 0 0 0 0 0 0 0 
0 0 0 0 0 0 0 0 0 
0 0 0 0 0 0 0 0 0 
0 0 0 0 0 0 0 0 0 
0 0 0 0 0 0 0 0 0 
0 0 0 0 0 0 0 0 0 
0 0 0 0 0 0 0 0 0 
0 0 0 0 0 0 0 0 0 
0 0 0 0 0 0 0 0 0 
0 0 0 0 0 0 0 0 0 
0 0 0 0 0 0 0 0 0 
0 0 0 0 0 0 0 0 0 
0 0 0 0 0 0 0 0 0 
0 0 0 0 0 0 0 0 0 
0 0 0 0 0 0 0 0 0 
0 0 0 0 0 0 0 0 0 
0 0 0 0 0 0 0 0 0 
0 0 0 0 0 0 0 0 0 
0 0 0 0 0 0 0 0 0 
0 0 0 0 0 0 0 0 0 
0 0 0 0 0 0 0 0 0 
0 0 0 0 0 0 0 0 0 
0 0 0 0 0 0 0 0 0 
0 0 0 0 0 0 0 0 0 
0 0 0 0 0 0 0 0 0 
0 0 0 0 0 0 0 0 0 
0 0 0 0 0 0 0 0 0 
0 0 0 0 0 0 0 0 0 
0 0 0 0 0 0 0 0 0 
0 0 0 0 0 0 0 0 0 
0 0 0 0 0 0 0 0 0 
0 0 0 0 0 0 0 0 0 
0 0 0 0 0 0 0 0 0 
0 0 0 0 0 0 0 0 0 
0 0 0 0 0 0 0 0 0 
0 0 0 0 0 0 0 0 0 
0 0 0 0 0 0 0 0 0 
0 0 0 0 0 0 0 0 0 
0 0 0 0 0 0 0 0 0 
0 0 0 0 0 0 0 0 0 
0 0 0 0 0 0 0 0 0 
0 0 0 0 0 0 0 0 0 
0 0 0 0 0 0 0 0 0 
0 0 0 0 0 0 0 0 0 
0 0 0 0 0 0 0 0 0 
0 0 0 0 0 0 0 0 0 
0 0 0 0 0 0 0 0 0 
0 0 0 0 0 0 0 0 0 
0 0 0 0 0 0 0 0 0 
0 0 0 0 0 0 0 0 0 
0 0 0 0 0 0 0 0 0 
0 0 0 0 0 0 0 0 0 
0 0 0 0 0 0 0 0 0 
0 0 0 0 0 0 0 0 0 
0 0 0 0 0 0 0 0 0 
0 0 0 0 0 0 0 0 0 
0 0 0 0 0 0 0 0 0 
0 0 0 0 0 0 0 0 0 
0 0 0 0 0 0 0 0 0 
0 0 0 0 0 0 0 0 0 
0 0 0 0 0 0 0 0 0 
0 0 0 0 0 0 0 0 0 
0 0 0 0 0 0 0 0 0 
0 0 0 0 0 0 0 0 0 
0 0 0 0 0 0 0 0 0 
0 0 0 0 0 0 0 0 0 
0 0 0 0 0 0 0 0 0 
0 0 0 0 0 0 0 0 0 
0 0 0 0 0 0 0 0 0 
0 0 0 0 0 0 0 0 0 
0 0 0 0 0 0 0 0 0 
0 0 0 0 0 0 0 0 0 
0 0 0 0 0 0 0 0 0 
0 0 0 0 0 0 0 0 0 
0 0 0 0 0 0 0 0 0 
0 0 0 0 0 0 0 0 0 
0 0 0 0 0 0 0 0 0 
0 0 0 0 0 0 0 0 0 
0 0 0 0 0 0 0 0 0 
0 0 0 0 0 0 0 0 0 
0 0 0 0 0 0 0 0 0 
0 0 0 0 0 0 0 0 0 
0 0 0 0 0 0 0 0 0 
0 0 0 0 0 0 0 0 0 
0 0 0 0 0 0 0 0 0 
0 0 0 0 0 0 0 0 0 
0 0 0 0 0 0 0 0 0 
0 0 0 0 0 0 0 0 0 
0 0 0 0 0 0 0 0 0 
0 0 0 0 0 0 0 0 0 
0 0 0 0 0 0 0 0 0 
0 0 0 0 0 0 0 0 0 
0 0 0 0 0 0 0 0 0 
0 0 0 0 0 0 0 0 0 
0 0 0 0 0 0 0 0 0 
0 0 0 0 0 0 0 0 0 
0 0 0 0 0 0 0 0 0 
0 0 0 0 0 0 0 0 0 
0 0 0 0 0 0 0 0 0 
0 0 0 0 0 0 0 0 0 
0 0 0 0 0 0 0 0 0 
0 0 0 0 0 0 0 0 0 
0 0 0 0 0 0 0 0 0 
0 0 0 0 0 0 0 0 0 
0 0 0 0 0 0 0 0 0 
0 0 0 0 0 0 0 0 0 
0 0 0 0 0 0 0 0 0 
0 0 0 0 0 0 0 0 0 
0 0 0 0 0 0 0 0 0 
0 0 0 0 0 0 0 0 0 
0 0 0 0 0 0 0 0 0 
0 0 0 0 0 0 0 0 0 
0 0 0 0 0 0 0 0 0 
0 0 0 0 0 0 0 0 0 
0 0 0 0 0 0 0 0 0 
0 0 0 0 0 0 0 0 0 
0 0 0 0 0 0 0 0 0 
0 0 0 0 0 0 0 0 0 
0 0 0 0 0 0 0 0 0 
0 0 0 0 0 0 0 0 0 
0 0 0 0 0 0 0 0 0 
0 0 0 0 0 0 0 0 0 
0 0 0 0 0 0 0 0 0 
0 0 0 0 0 0 0 0 0 
0 0 0 0 0 0 0 0 0 
0 0 0 0 0 0 0 0 0 
0 0 0 0 0 0 0 0 0 
0 0 0 0 0 0 0 0 0 
0 0 0 0 0 0 0 0 0 
0 0 0 0 0 0 0 0 0 
0 0 0 0 0 0 0 0 0 
0 0 0 0 0 0 0 0 0 
0 0 0 0 0 0 0 0 0 
0 0 0 0 0 0 0 0 0 
0 0 0 0 0 0 0 0 0 
0 0 0 0 0 0 0 0 0 
0 0 0 0 0 0 0 0 0 
0 0 0 0 0 0 0 0 0 
0 0 0 0 0 0 0 0 0 
0 0 0 0 0 0 0 0 0 
0 0 0 0 0 0 0 0 0 
0 0 0 0 0 0 0 0 0 
0 0 0 0 0 0 0 0 0 
0 0 0 0 0 0 0 0 0 
0 0 0 0 0 0 0 0 0 
0 0 0 0 0 0 0 0 0 
0 0 0 0 0 0 0 0 0 
0 0 0 0 0 0 0 0 0 
0 0 0 0 0 0 0 0 0 
0 0 0 0 0 0 0 0 0 
0 0 0 0 0 0 0 0 0 
0 0 0 0 0 0 0 0 0 
0 0 0 0 0 0 0 0 0 
0 0 0 0 0 0 0 0 0 
0 0 0 0 0 0 0 0 0 
0 0 0 0 0 0 0 0 0 
0 0 0 0 0 0 0 0 0 
0 0 0 0 0 0 0 0 0 
0 0 0 0 0 0 0 0 0 
0 0 0 0 0 0 0 0 0 
0 0 0 0 0 0 0 0 0 
0 0 0 0 0 0 0 0 0 
0 0 0 0 0 0 0 0 0 
0 0 0 0 0 0 0 0 0 
0 0 0 0 0 0 0 0 0 
0 0 0 0 0 0 0 0 0 
0 0 0 0 0 0 0 0 0 
0 0 0 0 0 0 0 0 0 
0 0 0 0 0 0 0 0 0 
0 0 0 0 0 0 0 0 0 
0 0 0 0 0 0 0 0 0 
0 0 0 0 0 0 0 0 0 
0 0 0 0 0 0 0 0 0 
0 0 0 0 0 0 0 0 0 
0 0 0 0 0 0 0 0 0 
0 0 0 0 0 0 0 0 0 
0 0 0 0 0 0 0 0 0 
0 0 0 0 0 0 0 0 0 
0 0 0 0 0 0 0 0 0 
0 0 0 0 0 0 0 0 0 
0 0 0 0 0 0 0 0 0 
0 0 0 0 0 0 0 0 0 
0 0 0 0 0 0 0 0 0 
0 0 0 0 0 0 0 0 0 
0 0 0 0 0 0 0 0 0 
0 0 0 0 0 0 0 0 0 
0 0 0 0 0 0 0 0 0 
0 0 0 0 0 0 0 0 0 
0 0 0 0 0 0 0 0 0 
0 0 0 0 0 0 0 0 0 
0 0 0 0 0 0 0 0 0 
0 0 0 0 0 0 0 0 0 
0 0 0 0 0 0 0 0 0 
0 0 0 0 0 0 0 0 0 
0 0 0 0 0 0 0 0 0 
0 0 0 0 0 0 0 0 0 
0 0 0 0 0 0 0 0 0 
0 0 0 0 0 0 0 0 0 
0 0 0 0 0 0 0 0 0 
0 0 0 0 0 0 0 0 0 
0 0 0 0 0 0 0 0 0 
0 0 0 0 0 0 0 0 0 
0 0 0 0 0 0 0 0 0 
0 0 0 0 0 0 0 0 0 
0 0 0 0 0 0 0 0 0 
0 0 0 0 0 0 0 0 0 
0 0 0 0 0 0 0 0 0 
0 0 0 0 0 0 0 0 0 
0 0 0 0 0 0 0 0 0 
0 0 0 0 0 0 0 0 0 
0 0 0 0 0 0 0 0 0 
0 0 0 0 0 0 0 0 0 
0 0 0 0 0 0 0 0 0 
0 0 0 0 0 0 0 0 0 
0 0 0 0 0 0 0 0 0 
0 0 0 0 0 0 0 0 0 
0 0 0 0 0 0 0 0 0 
0 0 0 0 0 0 0 0 0 
0 0 0 0 0 0 0 0 0 
0 0 0 0 0 0 0 0 0 
0 0 0 0 0 0 0 0 0 
0 0 0 0 0 0 0 0 0 
0 0 0 0 0 0 0 0 0 
0 0 0 0 0 0 0 0 0 
0 0 0 0 0 0 0 0 0 
0 0 0 0 0 0 0 0 0 
0 0 0 0 0 0 0 0 0 
0 0 0 0 0 0 0 0 0 
0 0 0 0 0 0 0 0 0 
0 0 0 0 0 0 0 0 0 
0 0 0 0 0 0 0 0 0 
0 0 0 0 0 0 0 0 0 
0 0 0 0 0 0 0 0 0 
0 0 0 0 0 0 0 0 0 
0 0 0 0 0 0 0 0 0 
0 0 0 0 0 0 0 0 0 
0 0 0 0 0 0 0 0 0 
0 0 0 0 0 0 0 0 0 
0 0 0 0 0 0 0 0 0 
0 0 0 0 0 0 0 0 0 
0 0 0 0 0 0 0 0 0 
0 0 0 0 0 0 0 0 0 
0 0 0 0 0 0 0 0 0 
0 0 0 0 0 0 0 0 0 
0 0 0 0 0 0 0 0 0 
0 0 0 0 0 0 0 0 0 
0 0 0 0 0 0 0 0 0 
0 0 0 0 0 0 0 0 0 
0 0 0 0 0 0 0 0 0 
0 0 0 0 0 0 0 0 0 
0 0 0 0 0 0 0 0 0 
0 0 0 0 0 0 0 0 0 
0 0 0 0 0 0 0 0 0 
0 0 0 0 0 0 0 0 0 
0 0 0 0 0 0 0 0 0 
0 0 0 0 0 0 0 0 0 
0 0 0 0 0 0 0 0 0 
0 0 0 0 0 0 0 0 0 
0 0 0 0 0 0 0 0 0 
0 0 0 0 0 0 0 0 0 
0 0 0 0 0 0 0 0 0 
0 0 0 0 0 0 0 0 0 
0 0 0 0 0 0 0 0 0 
0 0 0 0 0 0 0 0 0 
0 0 0 0 0 0 0 0 0 
0 0 0 0 0 0 0 0 0 
0 0 0 0 0 0 0 0 0 
0 0 0 0 0 0 0 0 0 
0 0 0 0 0 0 0 0 0 
0 0 0 0 0 0 0 0 0 
0 0 0 0 0 0 0 0 0 
0 0 0 0 0 0 0 0 0 
0 0 0 0 0 0 0 0 0 
0 0 0 0 0 0 0 0 0 
0 0 0 0 0 0 0 0 0 
0 0 0 0 0 0 0 0 0 
0 0 0 0 0 0 0 0 0 
0 0 0 0 0 0 0 0 0 
0 0 0 0 0 0 0 0 0 
0 0 0 0 0 0 0 0 0 
0 0 0 0 0 0 0 0 0 
0 0 0 0 0 0 0 0 0 
0 0 0 0 0 0 0 0 0 
0 0 0 0 0 0 0 0 0 
0 0 0 0 0 0 0 0 0 
0 0 0 0 0 0 0 0 0 
0 0 0 0 0 0 0 0 0 
0 0 0 0 0 0 0 0 0 
0 0 0 0 0 0 0 0 0 
0 0 0 0 0 0 0 0 0 
0 0 0 0 0 0 0 0 0 
0 0 0 0 0 0 0 0 0 
0 0 0 0 0 0 0 0 0 
0 0 0 0 0 0 0 0 0 
0 0 0 0 0 0 0 0 0 
0 0 0 0 0 0 0 0 0 
0 0 0 0 0 0 0 0 0 
0 0 0 0 0 0 0 0 0 
0 0 0 0 0 0 0 0 0 
0 0 0 0 0 0 0 0 0 
0 0 0 0 0 0 0 0 0 
0 0 0 0 0 0 0 0 0 
0 0 0 0 0 0 0 0 0 
0 0 0 0 0 0 0 0 0 
0 0 0 0 0 0 0 0 0 
0 0 0 0 0 0 0 0 0 
0 0 0 0 0 0 0 0 0 
0 0 0 0 0 0 0 0 0 
0 0 0 0 0 0 0 0 0 
0 0 0 0 0 0 0 0 0 
0 0 0 0 0 0 0 0 0 
0 0 0 0 0 0 0 0 0 
0 0 0 0 0 0 0 0 0 
0 0 0 0 0 0 0 0 0 
0 0 0 0 0 0 0 0 0 
0 0 0 0 0 0 0 0 0 
0 0 0 0 0 0 0 0 0 
0 0 0 0 0 0 0 0 0 
0 0 0 0 0 0 0 0 0 
0 0 0 0 0 0 0 0 0 
0 0 0 0 0 0 0 0 0 
0 0 0 0 0 0 0 0 0 
0 0 0 0 0 0 0 0 0 
0 0 0 0 0 0 0 0 0 
0 0 0 0 0 0 0 0 0 
0 0 0 0 0 0 0 0 0 
0 0 0 0 0 0 0 0 0 
0 0 0 0 0 0 0 0 0 
0 0 0 0 0 0 0 0 0 
0 0 0 0 0 0 0 0 0 
0 0 0 0 0 0 0 0 0 
0 0 0 0 0 0 0 0 0 
0 0 0 0 0 0 0 0 0 
0 0 0 0 0 0 0 0 0 
0 0 0 0 0 0 0 0 0 
0 0 0 0 0 0 0 0 0 
0 0 0 0 0 0 0 0 0 
0 0 0 0 0 0 0 0 0 
0 0 0 0 0 0 0 0 0 
0 0 0 0 0 0 0 0 0 
0 0 0 0 0 0 0 0 0 
0 0 0 0 0 0 0 0 0 
0 0 0 0 0 0 0 0 0 
0 0 0 0 0 0 0 0 0 
0 0 0 0 0 0 0 0 0 
0 0 0 0 0 0 0 0 0 
0 0 0 0 0 0 0 0 0 
0 0 0 0 0 0 0 0 0 
0 0 0 0 0 0 0 0 0 
0 0 0 0 0 0 0 0 0 
0 0 0 0 0 0 0 0 0 
0 0 0 0 0 0 0 0 0 
0 0 0 0 0 0 0 0 0 
0 0 0 0 0 0 0 0 0 
0 0 0 0 0 0 0 0 0 
0 0 0 0 0 0 0 0 0 
0 0 0 0 0 0 0 0 0 
0 0 0 0 0 0 0 0 0 
0 0 0 0 0 0 0 0 0 
0 0 0 0 0 0 0 0 0 
0 0 0 0 0 0 0 0 0 
0 0 0 0 0 0 0 0 0 
0 0 0 0 0 0 0 0 0 
0 0 0 0 0 0 0 0 0 
0 0 0 0 0 0 0 0 0 
0 0 0 0 0 0 0 0 0 
0 0 0 0 0 0 0 0 0 
0 0 0 0 0 0 0 0 0 
0 0 0 0 0 0 0 0 0 
0 0 0 0 0 0 0 0 0 
0 0 0 0 0 0 0 0 0 
0 0 0 0 0 0 0 0 0 
0 0 0 0 0 0 0 0 0 
0 0 0 0 0 0 0 0 0 
0 0 0 0 0 0 0 0 0 
0 0 0 0 0 0 0 0 0 
0 0 0 0 0 0 0 0 0 
0 0 0 0 0 0 0 0 0 
0 0 0 0 0 0 0 0 0 
0 0 0 0 0 0 0 0 0 
0 0 0 0 0 0 0 0 0 
0 0 0 0 0 0 0 0 0 
0 0 0 0 0 0 0 0 0 
0 0 0 0 0 0 0 0 0 
0 0 0 0 0 0 0 0 0 
0 0 0 0 0 0 0 0 0 
0 0 0 0 0 0 0 0 0 
0 0 0 0 0 0 0 0 0 
0 0 0 0 0 0 0 0 0 
0 0 0 0 0 0 0 0 0 
0 0 0 0 0 0 0 0 0 
0 0 0 0 0 0 0 0 0 
0 0 0 0 0 0 0 0 0 
0 0 0 0 0 0 0 0 0 
0 0 0 0 0 0 0 0 0 
0 0 0 0 0 0 0 0 0 
0 0 0 0 0 0 0 0 0 
0 0 0 0 0 0 0 0 0 
0 0 0 0 0 0 0 0 0 
0 0 0 0 0 0 0 0 0 
0 0 0 0 0 0 0 0 0 
0 0 0 0 0 0 0 0 0 
0 0 0 0 0 0 0 0 0 
0 0 0 0 0 0 0 0 0 
0 0 0 0 0 0 0 0 0 
0 0 0 0 0 0 0 0 0 
0 0 0 0 0 0 0 0 0 
0 0 0 0 0 0 0 0 0 
0 0 0 0 0 0 0 0 0 
0 0 0 0 0 0 0 0 0 
0 0 0 0 0 0 0 0 0 
0 0 0 0 0 0 0 0 0 
0 0 0 0 0 0 0 0 0 
0 0 0 0 0 0 0 0 0 
0 0 0 0 0 0 0 0 0 
0 0 0 0 0 0 0 0 0 
0 0 0 0 0 0 0 0 0 
0 0 0 0 0 0 0 0 0 
0 0 0 0 0 0 0 0 0 
0 0 0 0 0 0 0 0 0 
0 0 0 0 0 0 0 0 0 
0 0 0 0 0 0 0 0 0 
0 0 0 0 0 0 0 0 0 
0 0 0 0 0 0 0 0 0 
0 0 0 0 0 0 0 0 0 
0 0 0 0 0 0 0 0 0 
0 0 0 0 0 0 0 0 0 
0 0 0 0 0 0 0 0 0 
0 0 0 0 0 0 0 0 0 
0 0 0 0 0 0 0 0 0 
0 0 0 0 0 0 0 0 0 
0 0 0 0 0 0 0 0 0 
0 0 0 0 0 0 0 0 0 
0 0 0 0 0 0 0 0 0 
0 0 0 0 0 0 0 0 0 
0 0 0 0 0 0 0 0 0 
0 0 0 0 0 0 0 0 0 
0 0 0 0 0 0 0 0 0 
0 0 0 0 0 0 0 0 0 
0 0 0 0 0 0 0 0 0 
0 0 0 0 0 0 0 0 0 
0 0 0 0 0 0 0 0 0 
0 0 0 0 0 0 0 0 0 
0 0 0 0 0 0 0 0 0 
0 0 0 0 0 0 0 0 0 
0 0 0 0 0 0 0 0 0 
0 0 0 0 0 0 0 0 0 
0 0 0 0 0 0 0 0 0 
0 0 0 0 0 0 0 0 0 
0 0 0 0 0 0 0 0 0 
0 0 0 0 0 0 0 0 0 
0 0 0 0 0 0 0 0 0 
0 0 0 0 0 0 0 0 0 
0 0 0 0 0 0 0 0 0 
0 0 0 0 0 0 0 0 0 
0 0 0 0 0 0 0 0 0 
0 0 0 0 0 0 0 0 0 
0 0 0 0 0 0 0 0 0 
0 0 0 0 0 0 0 0 0 
0 0 0 0 0 0 0 0 0 
0 0 0 0 0 0 0 0 0 
0 0 0 0 0 0 0 0 0 
0 0 0 0 0 0 0 0 0 
0 0 0 0 0 0 0 0 0 
0 0 0 0 0 0 0 0 0 
0 0 0 0 0 0 0 0 0 
0 0 0 0 0 0 0 0 0 
0 0 0 0 0 0 0 0 0 
0 0 0 0 0 0 0 0 0 
0 0 0 0 0 0 0 0 0 
0 0 0 0 0 0 0 0 0 
0 0 0 0 0 0 0 0 0 
0 0 0 0 0 0 0 0 0 
0 0 0 0 0 0 0 0 0 
0 0 0 0 0 0 0 0 0 
0 0 0 0 0 0 0 0 0 
0 0 0 0 0 0 0 0 0 
0 0 0 0 0 0 0 0 0 
0 0 0 0 0 0 0 0 0 
0 0 0 0 0 0 0 0 0 
0 0 0 0 0 0 0 0 0 
0 0 0 0 0 0 0 0 0 
0 0 0 0 0 0 0 0 0 
0 0 0 0 0 0 0 0 0 
0 0 0 0 0 0 0 0 0 
0 0 0 0 0 0 0 0 0 
0 0 0 0 0 0 0 0 0 
0 0 0 0 0 0 0 0 0 
0 0 0 0 0 0 0 0 0 
0 0 0 0 0 0 0 0 0 
0 0 0 0 0 0 0 0 0 
0 0 0 0 0 0 0 0 0 
0 0 0 0 0 0 0 0 0 
0 0 0 0 0 0 0 0 0 
0 0 0 0 0 0 0 0 0 
0 0 0 0 0 0 0 0 0 
0 0 0 0 0 0 0 0 0 
0 0 0 0 0 0 0 0 0 
0 0 0 0 0 0 0 0 0 
0 0 0 0 0 0 0 0 0 
0 0 0 0 0 0 0 0 0 
0 0 0 0 0 0 0 0 0 
0 0 0 0 0 0 0 0 0 
0 0 0 0 0 0 0 0 0 
0 0 0 0 0 0 0 0 0 
0 0 0 0 0 0 0 0 0 
0 0 0 0 0 0 0 0 0 
0 0 0 0 0 0 0 0 0 
0 0 0 0 0 0 0 0 0 
0 0 0 0 0 0 0 0 0 
0 0 0 0 0 0 0 0 0 
0 0 0 0 0 0 0 0 0 
0 0 0 0 0 0 0 0 0 
0 0 0 0 0 0 0 0 0 
0 0 0 0 0 0 0 0 0 
0 0 0 0 0 0 0 0 0 
0 0 0 0 0 0 0 0 0 
0 0 0 0 0 0 0 0 0 
0 0 0 0 0 0 0 0 0 
0 0 0 0 0 0 0 0 0 
0 0 0 0 0 0 0 0 0 
0 0 0 0 0 0 0 0 0 
0 0 0 0 0 0 0 0 0 
0 0 0 0 0 0 0 0 0 
0 0 0 0 0 0 0 0 0 
0 0 0 0 0 0 0 0 0 
0 0 0 0 0 0 0 0 0 
0 0 0 0 0 0 0 0 0 
0 0 0 0 0 0 0 0 0 
0 0 0 0 0 0 0 0 0 
0 0 0 0 0 0 0 0 0 
0 0 0 0 0 0 0 0 0 
0 0 0 0 0 0 0 0 0 
0 0 0 0 0 0 0 0 0 
0 0 0 0 0 0 0 0 0 
0 0 0 0 0 0 0 0 0 
0 0 0 0 0 0 0 0 0 
0 0 0 0 0 0 0 0 0 
0 0 0 0 0 0 0 0 0 
0 0 0 0 0 0 0 0 0 
0 0 0 0 0 0 0 0 0 
0 0 0 0 0 0 0 0 0 
0 0 0 0 0 0 0 0 0 
0 0 0 0 0 0 0 0 0 
0 0 0 0 0 0 0 0 0 
0 0 0 0 0 0 0 0 0 
0 0 0 0 0 0 0 0 0 
0 0 0 0 0 0 0 0 0 
0 0 0 0 0 0 0 0 0 
0 0 0 0 0 0 0 0 0 
0 0 0 0 0 0 0 0 0 
0 0 0 0 0 0 0 0 0 
0 0 0 0 0 0 0 0 0 
0 0 0 0 0 0 0 0 0 
0 0 0 0 0 0 0 0 0 
0 0 0 0 0 0 0 0 0 
0 0 0 0 0 0 0 0 0 
0 0 0 0 0 0 0 0 0 
0 0 0 0 0 0 0 0 0 
0 0 0 0 0 0 0 0 0 
0 0 0 0 0 0 0 0 0 
0 0 0 0 0 0 0 0 0 
0 0 0 0 0 0 0 0 0 
0 0 0 0 0 0 0 0 0 
0 0 0 0 0 0 0 0 0 
0 0 0 0 0 0 0 0 0 
0 0 0 0 0 0 0 0 0 
0 0 0 0 0 0 0 0 0 
0 0 0 0 0 0 0 0 0 
0 0 0 0 0 0 0 0 0 
0 0 0 0 0 0 0 0 0 
0 0 0 0 0 0 0 0 0 
0 0 0 0 0 0 0 0 0 
0 0 0 0 0 0 0 0 0 
0 0 0 0 0 0 0 0 0 
0 0 0 0 0 0 0 0 0 
0 0 0 0 0 0 0 0 0 
0 0 0 0 0 0 0 0 0 
0 0 0 0 0 0 0 0 0 
0 0 0 0 0 0 0 0 0 
0 0 0 0 0 0 0 0 0 
0 0 0 0 0 0 0 0 0 
0 0 0 0 0 0 0 0 0 
0 0 0 0 0 0 0 0 0 
0 0 0 0 0 0 0 0 0 
0 0 0 0 0 0 0 0 0 
0 0 0 0 0 0 0 0 0 
0 0 0 0 0 0 0 0 0 
0 0 0 0 0 0 0 0 0 
0 0 0 0 0 0 0 0 0 
0 0 0 0 0 0 0 0 0 
0 0 0 0 0 0 0 0 0 
0 0 0 0 0 0 0 0 0 
0 0 0 0 0 0 0 0 0 
0 0 0 0 0 0 0 0 0 
0 0 0 0 0 0 0 0 0 
0 0 0 0 0 0 0 0 0 
0 0 0 0 0 0 0 0 0 
0 0 0 0 0 0 0 0 0 
0 0 0 0 0 0 0 0 0 
0 0 0 0 0 0 0 0 0 
0 0 0 0 0 0 0 0 0 
0 0 0 0 0 0 0 0 0 
0 0 0 0 0 0 0 0 0 
0 0 0 0 0 0 0 0 0 
0 0 0 0 0 0 0 0 0 
0 0 0 0 0 0 0 0 0 
0 0 0 0 0 0 0 0 0 
0 0 0 0 0 0 0 0 0 
0 0 0 0 0 0 0 0 0 
0 0 0 0 0 0 0 0 0 
0 0 0 0 0 0 0 0 0 
0 0 0 0 0 0 0 0 0 
0 0 0 0 0 0 0 0 0 
0 0 0 0 0 0 0 0 0 
0 0 0 0 0 0 0 0 0 
0 0 0 0 0 0 0 0 0 
0 0 0 0 0 0 0 0 0 
0 0 0 0 0 0 0 0 0 
0 0 0 0 0 0 0 0 0 
0 0 0 0 0 0 0 0 0 
0 0 0 0 0 0 0 0 0 
0 0 0 0 0 0 0 0 0 
0 0 0 0 0 0 0 0 0 
0 0 0 0 0 0 0 0 0 
0 0 0 0 0 0 0 0 0 
0 0 0 0 0 0 0 0 0 
0 0 0 0 0 0 0 0 0 
0 0 0 0 0 0 0 0 0 
0 0 0 0 0 0 0 0 0 
0 0 0 0 0 0 0 0 0 
0 0 0 0 0 0 0 0 0 
0 0 0 0 0 0 0 0 0 
0 0 0 0 0 0 0 0 0 
0 0 0 0 0 0 0 0 0 
0 0 0 0 0 0 0 0 0 
0 0 0 0 0 0 0 0 0 
0 0 0 0 0 0 0 0 0 
0 0 0 0 0 0 0 0 0 
0 0 0 0 0 0 0 0 0 
0 0 0 0 0 0 0 0 0 
0 0 0 0 0 0 0 0 0 
0 0 0 0 0 0 0 0 0 
0 0 0 0 0 0 0 0 0 
0 0 0 0 0 0 0 0 0 
0 0 0 0 0 0 0 0 0 
0 0 0 0 0 0 0 0 0 
0 0 0 0 0 0 0 0 0 
0 0 0 0 0 0 0 0 0 
0 0 0 0 0 0 0 0 0 
0 0 0 0 0 0 0 0 0 
0 0 0 0 0 0 0 0 0 
0 0 0 0 0 0 0 0 0 
0 0 0 0 0 0 0 0 0 
0 0 0 0 0 0 0 0 0 
0 0 0 0 0 0 0 0 0 
0 0 0 0 0 0 0 0 0 
0 0 0 0 0 0 0 0 0 
0 0 0 0 0 0 0 0 0 
0 0 0 0 0 0 0 0 0 
0 0 0 0 0 0 0 0 0 
0 0 0 0 0 0 0 0 0 
0 0 0 0 0 0 0 0 0 
0 0 0 0 0 0 0 0 0 
0 0 0 0 0 0 0 0 0 
0 0 0 0 0 0 0 0 0 
0 0 0 0 0 0 0 0 0 
0 0 0 0 0 0 0 0 0 
0 0 0 0 0 0 0 0 0 
0 0 0 0 0 0 0 0 0 
0 0 0 0 0 0 0 0 0 
0 0 0 0 0 0 0 0 0 
0 0 0 0 0 0 0 0 0 
0 0 0 0 0 0 0 0 0 
0 0 0 0 0 0 0 0 0 
0 0 0 0 0 0 0 0 0 
0 0 0 0 0 0 0 0 0 
0 0 0 0 0 0 0 0 0 
0 0 0 0 0 0 0 0 0 
0 0 0 0 0 0 0 0 0 
0 0 0 0 0 0 0 0 0 
0 0 0 0 0 0 0 0 0 
0 0 0 0 0 0 0 0 0 
0 0 0 0 0 0 0 0 0 
0 0 0 0 0 0 0 0 0 
0 0 0 0 0 0 0 0 0 
0 0 0 0 0 0 0 0 0 
0 0 0 0 0 0 0 0 0 
0 0 0 0 0 0 0 0 0 
0 0 0 0 0 0 0 0 0 
0 0 0 0 0 0 0 0 0 
0 0 0 0 0 0 0 0 0 
0 0 0 0 0 0 0 0 0 
0 0 0 0 0 0 0 0 0 
0 0 0 0 0 0 0 0 0 
0 0 0 0 0 0 0 0 0 
0 0 0 0 0 0 0 0 0 
0 0 0 0 0 0 0 0 0 
0 0 0 0 0 0 0 0 0 
0 0 0 0 0 0 0 0 0 
0 0 0 0 0 0 0 0 0 
0 0 0 0 0 0 0 0 0 
0 0 0 0 0 0 0 0 0 
0 0 0 0 0 0 0 0 0 
0 0 0 0 0 0 0 0 0 
0 0 0 0 0 0 0 0 0 
0 0 0 0 0 0 0 0 0 
0 0 0 0 0 0 0 0 0 
0 0 0 0 0 0 0 0 0 
0 0 0 0 0 0 0 0 0 
0 0 0 0 0 0 0 0 0 
0 0 0 0 0 0 0 0 0 
0 0 0 0 0 0 0 0 0 
0 0 0 0 0 0 0 0 0 
0 0 0 0 0 0 0 0 0 
0 0 0 0 0 0 0 0 0 
0 0 0 0 0 0 0 0 0 
0 0 0 0 0 0 0 0 0 
0 0 0 0 0 0 0 0 0 
0 0 0 0 0 0 0 0 0 
0 0 0 0 0 0 0 0 0 
0 0 0 0 0 0 0 0 0 
0 0 0 0 0 0 0 0 0 
0 0 0 0 0 0 0 0 0 
0 0 0 0 0 0 0 0 0 
0 0 0 0 0 0 0 0 0 
0 0 0 0 0 0 0 0 0 
0 0 0 0 0 0 0 0 0 
0 0 0 0 0 0 0 0 0 
0 0 0 0 0 0 0 0 0 
0 0 0 0 0 0 0 0 0 
0 0 0 0 0 0 0 0 0 
0 0 0 0 0 0 0 0 0 
0 0 0 0 0 0 0 0 0 
0 0 0 0 0 0 0 0 0 
0 0 0 0 0 0 0 0 0 
0 0 0 0 0 0 0 0 0 
0 0 0 0 0 0 0 0 0 
0 0 0 0 0 0 0 0 0 
0 0 0 0 0 0 0 0 0 
0 0 0 0 0 0 0 0 0 
0 0 0 0 0 0 0 0 0 
0 0 0 0 0 0 0 0 0 
0 0 0 0 0 0 0 0 0 
0 0 0 0 0 0 0 0 0 
0 0 0 0 0 0 0 0 0 
0 0 0 0 0 0 0 0 0 
0 0 0 0 0 0 0 0 0 
0 0 0 0 0 0 0 0 0 
0 0 0 0 0 0 0 0 0 
0 0 0 0 0 0 0 0 0 
0 0 0 0 0 0 0 0 0 
0 0 0 0 0 0 0 0 0 
0 0 0 0 0 0 0 0 0 
0 0 0 0 0 0 0 0 0 
0 0 0 0 0 0 0 0 0 
0 0 0 0 0 0 0 0 0 
0 0 0 0 0 0 0 0 0 
0 0 0 0 0 0 0 0 0 
0 0 0 0 0 0 0 0 0 
0 0 0 0 0 0 0 0 0 
0 0 0 0 0 0 0 0 0 
0 0 0 0 0 0 0 0 0 
0 0 0 0 0 0 0 0 0 
0 0 0 0 0 0 0 0 0 
0 0 0 0 0 0 0 0 0 
0 0 0 0 0 0 0 0 0 
0 0 0 0 0 0 0 0 0 
0 0 0 0 0 0 0 0 0 
0 0 0 0 0 0 0 0 0 
0 0 0 0 0 0 0 0 0 
0 0 0 0 0 0 0 0 0 
0 0 0 0 0 0 0 0 0 
0 0 0 0 0 0 0 0 0 
0 0 0 0 0 0 0 0 0 
0 0 0 0 0 0 0 0 0 
0 0 0 0 0 0 0 0 0 
0 0 0 0 0 0 0 0 0 
0 0 0 0 0 0 0 0 0 
0 0 0 0 0 0 0 0 0 
0 0 0 0 0 0 0 0 0 
0 0 0 0 0 0 0 0 0 
0 0 0 0 0 0 0 0 0 
0 0 0 0 0 0 0 0 0 
0 0 0 0 0 0 0 0 0 
0 0 0 0 0 0 0 0 0 
0 0 0 0 0 0 0 0 0 
0 0 0 0 0 0 0 0 0 
0 0 0 0 0 0 0 0 0 
0 0 0 0 0 0 0 0 0 
0 0 0 0 0 0 0 0 0 
0 0 0 0 0 0 0 0 0 
0 0 0 0 0 0 0 0 0 
0 0 0 0 0 0 0 0 0 
0 0 0 0 0 0 0 0 0 
0 0 0 0 0 0 0 0 0 
0 0 0 0 0 0 0 0 0 
0 0 0 0 0 0 0 0 0 
0 0 0 0 0 0 0 0 0 
0 0 0 0 0 0 0 0 0 
0 0 0 0 0 0 0 0 0 
0 0 0 0 0 0 0 0 0 
0 0 0 0 0 0 0 0 0 
0 0 0 0 0 0 0 0 0 
0 0 0 0 0 0 0 0 0 
0 0 0 0 0 0 0 0 0 
0 0 0 0 0 0 0 0 0 
0 0 0 0 0 0 0 0 0 
0 0 0 0 0 0 0 0 0 
0 0 0 0 0 0 0 0 0 
0 0 0 0 0 0 0 0 0 
0 0 0 0 0 0 0 0 0 
0 0 0 0 0 0 0 0 0 
0 0 0 0 0 0 0 0 0 
0 0 0 0 0 0 0 0 0 
0 0 0 0 0 0 0 0 0 
0 0 0 0 0 0 0 0 0 
0 0 0 0 0 0 0 0 0 
0 0 0 0 0 0 0 0 0 
0 0 0 0 0 0 0 0 0 
0 0 0 0 0 0 0 0 0 
0 0 0 0 0 0 0 0 0 
0 0 0 0 0 0 0 0 0 
0 0 0 0 0 0 0 0 0 
0 0 0 0 0 0 0 0 0 
0 0 0 0 0 0 0 0 0 
0 0 0 0 0 0 0 0 0 
0 0 0 0 0 0 0 0 0 
0 0 0 0 0 0 0 0 0 
0 0 0 0 0 0 0 0 0 
0 0 0 0 0 0 0 0 0 
0 0 0 0 0 0 0 0 0 
0 0 0 0 0 0 0 0 0 
0 0 0 0 0 0 0 0 0 
0 0 0 0 0 0 0 0 0 
0 0 0 0 0 0 0 0 0 
0 0 0 0 0 0 0 0 0 
0 0 0 0 0 0 0 0 0 
0 0 0 0 0 0 0 0 0 
0 0 0 0 0 0 0 0 0 
0 0 0 0 0 0 0 0 0 
0 0 0 0 0 0 0 0 0 
0 0 0 0 0 0 0 0 0 
0 0 0 0 0 0 0 0 0 
0 0 0 0 0 0 0 0 0 
0 0 0 0 0 0 0 0 0 
0 0 0 0 0 0 0 0 0 
0 0 0 0 0 0 0 0 0 
0 0 0 0 0 0 0 0 0 
0 0 0 0 0 0 0 0 0 
0 0 0 0 0 0 0 0 0 
0 0 0 0 0 0 0 0 0 
0 0 0 0 0 0 0 0 0 
0 0 0 0 0 0 0 0 0 
0 0 0 0 0 0 0 0 0 
0 0 0 0 0 0 0 0 0 
0 0 0 0 0 0 0 0 0 
0 0 0 0 0 0 0 0 0 
0 0 0 0 0 0 0 0 0 
0 0 0 0 0 0 0 0 0 
0 0 0 0 0 0 0 0 0 
0 0 0 0 0 0 0 0 0 
0 0 0 0 0 0 0 0 0 
0 0 0 0 0 0 0 0 0 
0 0 0 0 0 0 0 0 0 
0 0 0 0 0 0 0 0 0 
0 0 0 0 0 0 0 0 0 
0 0 0 0 0 0 0 0 0 
0 0 0 0 0 0 0 0 0 
0 0 0 0 0 0 0 0 0 
0 0 0 0 0 0 0 0 0 
0 0 0 0 0 0 0 0 0 
0 0 0 0 0 0 0 0 0 
0 0 0 0 0 0 0 0 0 
0 0 0 0 0 0 0 0 0 
0 0 0 0 0 0 0 0 0 
0 0 0 0 0 0 0 0 0 
0 0 0 0 0 0 0 0 0 
0 0 0 0 0 0 0 0 0 
0 0 0 0 0 0 0 0 0 
0 0 0 0 0 0 0 0 0 
0 0 0 0 0 0 0 0 0 
0 0 0 0 0 0 0 0 0 
0 0 0 0 0 0 0 0 0 
0 0 0 0 0 0 0 0 0 
0 0 0 0 0 0 0 0 0 
0 0 0 0 0 0 0 0 0 
0 0 0 0 0 0 0 0 0 
0 0 0 0 0 0 0 0 0 
0 0 0 0 0 0 0 0 0 
0 0 0 0 0 0 0 0 0 
0 0 0 0 0 0 0 0 0 
0 0 0 0 0 0 0 0 0 
0 0 0 0 0 0 0 0 0 
0 0 0 0 0 0 0 0 0 
0 0 0 0 0 0 0 0 0 
0 0 0 0 0 0 0 0 0 
0 0 0 0 0 0 0 0 0 
0 0 0 0 0 0 0 0 0 
0 0 0 0 0 0 0 0 0 
0 0 0 0 0 0 0 0 0 
0 0 0 0 0 0 0 0 0 
0 0 0 0 0 0 0 0 0 
0 0 0 0 0 0 0 0 0 
0 0 0 0 0 0 0 0 0 
0 0 0 0 0 0 0 0 0 
0 0 0 0 0 0 0 0 0 
0 0 0 0 0 0 0 0 0 
0 0 0 0 0 0 0 0 0 
0 0 0 0 0 0 0 0 0 
0 0 0 0 0 0 0 0 0 
0 0 0 0 0 0 0 0 0 
0 0 0 0 0 0 0 0 0 
0 0 0 0 0 0 0 0 0 
0 0 0 0 0 0 0 0 0 
0 0 0 0 0 0 0 0 0 
0 0 0 0 0 0 0 0 0 
0 0 0 0 0 0 0 0 0 
0 0 0 0 0 0 0 0 0 
0 0 0 0 0 0 0 0 0 
0 0 0 0 0 0 0 0 0 
0 0 0 0 0 0 0 0 0 
0 0 0 0 0 0 0 0 0 
0 0 0 0 0 0 0 0 0 
0 0 0 0 0 0 0 0 0 
0 0 0 0 0 0 0 0 0 
0 0 0 0 0 0 0 0 0 
0 0 0 0 0 0 0 0 0 
0 0 0 0 0 0 0 0 0 
0 0 0 0 0 0 0 0 0 
0 0 0 0 0 0 0 0 0 
0 0 0 0 0 0 0 0 0 
0 0 0 0 0 0 0 0 0 
0 0 0 0 0 0 0 0 0 
0 0 0 0 0 0 0 0 0 
0 0 0 0 0 0 0 0 0 
0 0 0 0 0 0 0 0 0 
0 0 0 0 0 0 0 0 0 
0 0 0 0 0 0 0 0 0 
0 0 0 0 0 0 0 0 0 
0 0 0 0 0 0 0 0 0 
0 0 0 0 0 0 0 0 0 
0 0 0 0 0 0 0 0 0 
0 0 0 0 0 0 0 0 0 
0 0 0 0 0 0 0 0 0 
0 0 0 0 0 0 0 0 0 
0 0 0 0 0 0 0 0 0 
0 0 0 0 0 0 0 0 0 
0 0 0 0 0 0 0 0 0 
0 0 0 0 0 0 0 0 0 
0 0 0 0 0 0 0 0 0 
0 0 0 0 0 0 0 0 0 
0 0 0 0 0 0 0 0 0 
0 0 0 0 0 0 0 0 0 
0 0 0 0 0 0 0 0 0 
0 0 0 0 0 0 0 0 0 
0 0 0 0 0 0 0 0 0 
0 0 0 0 0 0 0 0 0 
0 0 0 0 0 0 0 0 0 
0 0 0 0 0 0 0 0 0 
0 0 0 0 0 0 0 0 0 
0 0 0 0 0 0 0 0 0 
0 0 0 0 0 0 0 0 0 
0 0 0 0 0 0 0 0 0 
0 0 0 0 0 0 0 0 0 
0 0 0 0 0 0 0 0 0 
0 0 0 0 0 0 0 0 0 
0 0 0 0 0 0 0 0 0 
0 0 0 0 0 0 0 0 0 
0 0 0 0 0 0 0 0 0 
0 0 0 0 0 0 0 0 0 
0 0 0 0 0 0 0 0 0 
0 0 0 0 0 0 0 0 0 
0 0 0 0 0 0 0 0 0 
0 0 0 0 0 0 0 0 0 
0 0 0 0 0 0 0 0 0 
0 0 0 0 0 0 0 0 0 
0 0 0 0 0 0 0 0 0 
0 0 0 0 0 0 0 0 0 
0 0 0 0 0 0 0 0 0 
0 0 0 0 0 0 0 0 0 
0 0 0 0 0 0 0 0 0 
0 0 0 0 0 0 0 0 0 
0 0 0 0 0 0 0 0 0 
0 0 0 0 0 0 0 0 0 
0 0 0 0 0 0 0 0 0 
0 0 0 0 0 0 0 0 0 
0 0 0 0 0 0 0 0 0 
0 0 0 0 0 0 0 0 0 
0 0 0 0 0 0 0 0 0 
0 0 0 0 0 0 0 0 0 
0 0 0 0 0 0 0 0 0 
0 0 0 0 0 0 0 0 0 
0 0 0 0 0 0 0 0 0 
0 0 0 0 0 0 0 0 0 
0 0 0 0 0 0 0 0 0 
0 0 0 0 0 0 0 0 0 
0 0 0 0 0 0 0 0 0 
0 0 0 0 0 0 0 0 0 
0 0 0 0 0 0 0 0 0 
0 0 0 0 0 0 0 0 0 
0 0 0 0 0 0 0 0 0 
0 0 0 0 0 0 0 0 0 
0 0 0 0 0 0 0 0 0 
0 0 0 0 0 0 0 0 0 
0 0 0 0 0 0 0 0 0 
0 0 0 0 0 0 0 0 0 
0 0 0 0 0 0 0 0 0 
0 0 0 0 0 0 0 0 0 
0 0 0 0 0 0 0 0 0 
0 0 0 0 0 0 0 0 0 
0 0 0 0 0 0 0 0 0 
0 0 0 0 0 0 0 0 0 
0 0 0 0 0 0 0 0 0 
0 0 0 0 0 0 0 0 0 
0 0 0 0 0 0 0 0 0 
0 0 0 0 0 0 0 0 0 
0 0 0 0 0 0 0 0 0 
0 0 0 0 0 0 0 0 0 
0 0 0 0 0 0 0 0 0 
0 0 0 0 0 0 0 0 0 
0 0 0 0 0 0 0 0 0 
0 0 0 0 0 0 0 0 0 
0 0 0 0 0 0 0 0 0 
0 0 0 0 0 0 0 0 0 
0 0 0 0 0 0 0 0 0 
0 0 0 0 0 0 0 0 0 
0 0 0 0 0 0 0 0 0 
0 0 0 0 0 0 0 0 0 
0 0 0 0 0 0 0 0 0 
0 0 0 0 0 0 0 0 0 
0 0 0 0 0 0 0 0 0 
0 0 0 0 0 0 0 0 0 
0 0 0 0 0 0 0 0 0 
0 0 0 0 0 0 0 0 0 
0 0 0 0 0 0 0 0 0 
0 0 0 0 0 0 0 0 0 
0 0 0 0 0 0 0 0 0 
0 0 0 0 0 0 0 0 0 
0 0 0 0 0 0 0 0 0 
0 0 0 0 0 0 0 0 0 
0 0 0 0 0 0 0 0 0 
0 0 0 0 0 0 0 0 0 
0 0 0 0 0 0 0 0 0 
0 0 0 0 0 0 0 0 0 
0 0 0 0 0 0 0 0 0 
0 0 0 0 0 0 0 0 0 
0 0 0 0 0 0 0 0 0 
0 0 0 0 0 0 0 0 0 
0 0 0 0 0 0 0 0 0 
0 0 0 0 0 0 0 0 0 
0 0 0 0 0 0 0 0 0 
0 0 0 0 0 0 0 0 0 
0 0 0 0 0 0 0 0 0 
0 0 0 0 0 0 0 0 0 
0 0 0 0 0 0 0 0 0 
0 0 0 0 0 0 0 0 0 
0 0 0 0 0 0 0 0 0 
0 0 0 0 0 0 0 0 0 
0 0 0 0 0 0 0 0 0 
0 0 0 0 0 0 0 0 0 
0 0 0 0 0 0 0 0 0 
0 0 0 0 0 0 0 0 0 
0 0 0 0 0 0 0 0 0 
0 0 0 0 0 0 0 0 0 
0 0 0 0 0 0 0 0 0 
0 0 0 0 0 0 0 0 0 
0 0 0 0 0 0 0 0 0 
0 0 0 0 0 0 0 0 0 
0 0 0 0 0 0 0 0 0 
0 0 0 0 0 0 0 0 0 
0 0 0 0 0 0 0 0 0 
0 0 0 0 0 0 0 0 0 
0 0 0 0 0 0 0 0 0 
0 0 0 0 0 0 0 0 0 
0 0 0 0 0 0 0 0 0 
0 0 0 0 0 0 0 0 0 
0 0 0 0 0 0 0 0 0 
0 0 0 0 0 0 0 0 0 
0 0 0 0 0 0 0 0 0 
0 0 0 0 0 0 0 0 0 
0 0 0 0 0 0 0 0 0 
0 0 0 0 0 0 0 0 0 
0 0 0 0 0 0 0 0 0 
0 0 0 0 0 0 0 0 0 
0 0 0 0 0 0 0 0 0 
0 0 0 0 0 0 0 0 0 
0 0 0 0 0 0 0 0 0 
0 0 0 0 0 0 0 0 0 
0 0 0 0 0 0 0 0 0 
0 0 0 0 0 0 0 0 0 
0 0 0 0 0 0 0 0 0 
0 0 0 0 0 0 0 0 0 
0 0 0 0 0 0 0 0 0 
0 0 0 0 0 0 0 0 0 
0 0 0 0 0 0 0 0 0 
0 0 0 0 0 0 0 0 0 
0 0 0 0 0 0 0 0 0 
0 0 0 0 0 0 0 0 0 
0 0 0 0 0 0 0 0 0 
0 0 0 0 0 0 0 0 0 
0 0 0 0 0 0 0 0 0 
0 0 0 0 0 0 0 0 0 
0 0 0 0 0 0 0 0 0 
0 0 0 0 0 0 0 0 0 
0 0 0 0 0 0 0 0 0 
0 0 0 0 0 0 0 0 0 
0 0 0 0 0 0 0 0 0 
0 0 0 0 0 0 0 0 0 
0 0 0 0 0 0 0 0 0 
0 0 0 0 0 0 0 0 0 
0 0 0 0 0 0 0 0 0 
0 0 0 0 0 0 0 0 0 
0 0 0 0 0 0 0 0 0 
0 0 0 0 0 0 0 0 0 
0 0 0 0 0 0 0 0 0 
0 0 0 0 0 0 0 0 0 
0 0 0 0 0 0 0 0 0 
0 0 0 0 0 0 0 0 0 
0 0 0 0 0 0 0 0 0 
0 0 0 0 0 0 0 0 0 
0 0 0 0 0 0 0 0 0 
0 0 0 0 0 0 0 0 0 
0 0 0 0 0 0 0 0 0 
0 0 0 0 0 0 0 0 0 
0 0 0 0 0 0 0 0 0 
0 0 0 0 0 0 0 0 0 
0 0 0 0 0 0 0 0 0 
0 0 0 0 0 0 0 0 0 
0 0 0 0 0 0 0 0 0 
0 0 0 0 0 0 0 0 0 
0 0 0 0 0 0 0 0 0 
0 0 0 0 0 0 0 0 0 
0 0 0 0 0 0 0 0 0 
0 0 0 0 0 0 0 0 0 
0 0 0 0 0 0 0 0 0 
0 0 0 0 0 0 0 0 0 
0 0 0 0 0 0 0 0 0 
0 0 0 0 0 0 0 0 0 
0 0 0 0 0 0 0 0 0 
0 0 0 0 0 0 0 0 0 
0 0 0 0 0 0 0 0 0 
0 0 0 0 0 0 0 0 0 
0 0 0 0 0 0 0 0 0 
0 0 0 0 0 0 0 0 0 
0 0 0 0 0 0 0 0 0 
0 0 0 0 0 0 0 0 0 
0 0 0 0 0 0 0 0 0 
0 0 0 0 0 0 0 0 0 
0 0 0 0 0 0 0 0 0 
0 0 0 0 0 0 0 0 0 
0 0 0 0 0 0 0 0 0 
0 0 0 0 0 0 0 0 0 
0 0 0 0 0 0 0 0 0 
0 0 0 0 0 0 0 0 0 
0 0 0 0 0 0 0 0 0 
0 0 0 0 0 0 0 0 0 
0 0 0 0 0 0 0 0 0 
0 0 0 0 0 0 0 0 0 
0 0 0 0 0 0 0 0 0 
0 0 0 0 0 0 0 0 0 
0 0 0 0 0 0 0 0 0 
0 0 0 0 0 0 0 0 0 
0 0 0 0 0 0 0 0 0 
0 0 0 0 0 0 0 0 0 
0 0 0 0 0 0 0 0 0 
0 0 0 0 0 0 0 0 0 
0 0 0 0 0 0 0 0 0 
0 0 0 0 0 0 0 0 0 
0 0 0 0 0 0 0 0 0 
0 0 0 0 0 0 0 0 0 
0 0 0 0 0 0 0 0 0 
0 0 0 0 0 0 0 0 0 
0 0 0 0 0 0 0 0 0 
0 0 0 0 0 0 0 0 0 
0 0 0 0 0 0 0 0 0 
0 0 0 0 0 0 0 0 0 
0 0 0 0 0 0 0 0 0 
0 0 0 0 0 0 0 0 0 
0 0 0 0 0 0 0 0 0 
0 0 0 0 0 0 0 0 0 
0 0 0 0 0 0 0 0 0 
0 0 0 0 0 0 0 0 0 
0 0 0 0 0 0 0 0 0 
0 0 0 0 0 0 0 0 0 
0 0 0 0 0 0 0 0 0 
0 0 0 0 0 0 0 0 0 
0 0 0 0 0 0 0 0 0 
0 0 0 0 0 0 0 0 0 
0 0 0 0 0 0 0 0 0 
0 0 0 0 0 0 0 0 0 
0 0 0 0 0 0 0 0 0 
0 0 0 0 0 0 0 0 0 
0 0 0 0 0 0 0 0 0 
0 0 0 0 0 0 0 0 0 
0 0 0 0 0 0 0 0 0 
0 0 0 0 0 0 0 0 0 
0 0 0 0 0 0 0 0 0 
0 0 0 0 0 0 0 0 0 
0 0 0 0 0 0 0 0 0 
0 0 0 0 0 0 0 0 0 
0 0 0 0 0 0 0 0 0 
0 0 0 0 0 0 0 0 0 
0 0 0 0 0 0 0 0 0 
0 0 0 0 0 0 0 0 0 
0 0 0 0 0 0 0 0 0 
0 0 0 0 0 0 0 0 0 
0 0 0 0 0 0 0 0 0 
0 0 0 0 0 0 0 0 0 
0 0 0 0 0 0 0 0 0 
0 0 0 0 0 0 0 0 0 
0 0 0 0 0 0 0 0 0 
0 0 0 0 0 0 0 0 0 
0 0 0 0 0 0 0 0 0 
0 0 0 0 0 0 0 0 0 
0 0 0 0 0 0 0 0 0 
0 0 0 0 0 0 0 0 0 
0 0 0 0 0 0 0 0 0 
0 0 0 0 0 0 0 0 0 
0 0 0 0 0 0 0 0 0 
0 0 0 0 0 0 0 0 0 
0 0 0 0 0 0 0 0 0 
0 0 0 0 0 0 0 0 0 
0 0 0 0 0 0 0 0 0 
0 0 0 0 0 0 0 0 0 
0 0 0 0 0 0 0 0 0 
0 0 0 0 0 0 0 0 0 
0 0 0 0 0 0 0 0 0 
0 0 0 0 0 0 0 0 0 
0 0 0 0 0 0 0 0 0 
0 0 0 0 0 0 0 0 0 
0 0 0 0 0 0 0 0 0 
0 0 0 0 0 0 0 0 0 
0 0 0 0 0 0 0 0 0 
0 0 0 0 0 0 0 0 0 
0 0 0 0 0 0 0 0 0 
0 0 0 0 0 0 0 0 0 
0 0 0 0 0 0 0 0 0 
0 0 0 0 0 0 0 0 0 
0 0 0 0 0 0 0 0 0 
0 0 0 0 0 0 0 0 0 
0 0 0 0 0 0 0 0 0 
0 0 0 0 0 0 0 0 0 
0 0 0 0 0 0 0 0 0 
0 0 0 0 0 0 0 0 0 
0 0 0 0 0 0 0 0 0 
0 0 0 0 0 0 0 0 0 
0 0 0 0 0 0 0 0 0 
0 0 0 0 0 0 0 0 0 
0 0 0 0 0 0 0 0 0 
0 0 0 0 0 0 0 0 0 
0 0 0 0 0 0 0 0 0 
0 0 0 0 0 0 0 0 0 
0 0 0 0 0 0 0 0 0 
0 0 0 0 0 0 0 0 0 
0 0 0 0 0 0 0 0 0 
0 0 0 0 0 0 0 0 0 
0 0 0 0 0 0 0 0 0 
0 0 0 0 0 0 0 0 0 
0 0 0 0 0 0 0 0 0 
0 0 0 0 0 0 0 0 0 
0 0 0 0 0 0 0 0 0 
0 0 0 0 0 0 0 0 0 
0 0 0 0 0 0 0 0 0 
0 0 0 0 0 0 0 0 0 
0 0 0 0 0 0 0 0 0 
0 0 0 0 0 0 0 0 0 
0 0 0 0 0 0 0 0 0 
0 0 0 0 0 0 0 0 0 
0 0 0 0 0 0 0 0 0 
0 0 0 0 0 0 0 0 0 
0 0 0 0 0 0 0 0 0 
0 0 0 0 0 0 0 0 0 
0 0 0 0 0 0 0 0 0 
0 0 0 0 0 0 0 0 0 
0 0 0 0 0 0 0 0 0 
0 0 0 0 0 0 0 0 0 
0 0 0 0 0 0 0 0 0 
0 0 0 0 0 0 0 0 0 
0 0 0 0 0 0 0 0 0 
0 0 0 0 0 0 0 0 0 
0 0 0 0 0 0 0 0 0 
0 0 0 0 0 0 0 0 0 
0 0 0 0 0 0 0 0 0 
0 0 0 0 0 0 0 0 0 
0 0 0 0 0 0 0 0 0 
0 0 0 0 0 0 0 0 0 
0 0 0 0 0 0 0 0 0 
0 0 0 0 0 0 0 0 0 
0 0 0 0 0 0 0 0 0 
0 0 0 0 0 0 0 0 0 
0 0 0 0 0 0 0 0 0 
0 0 0 0 0 0 0 0 0 
0 0 0 0 0 0 0 0 0 
0 0 0 0 0 0 0 0 0 
0 0 0 0 0 0 0 0 0 
0 0 0 0 0 0 0 0 0 
0 0 0 0 0 0 0 0 0 
0 0 0 0 0 0 0 0 0 
0 0 0 0 0 0 0 0 0 
0 0 0 0 0 0 0 0 0 
0 0 0 0 0 0 0 0 0 
0 0 0 0 0 0 0 0 0 
0 0 0 0 0 0 0 0 0 
0 0 0 0 0 0 0 0 0 
0 0 0 0 0 0 0 0 0 
0 0 0 0 0 0 0 0 0 
0 0 0 0 0 0 0 0 0 
0 0 0 0 0 0 0 0 0 
0 0 0 0 0 0 0 0 0 
0 0 0 0 0 0 0 0 0 
0 0 0 0 0 0 0 0 0 
0 0 0 0 0 0 0 0 0 
0 0 0 0 0 0 0 0 0 
0 0 0 0 0 0 0 0 0 
0 0 0 0 0 0 0 0 0 
0 0 0 0 0 0 0 0 0 
0 0 0 0 0 0 0 0 0 
0 0 0 0 0 0 0 0 0 
0 0 0 0 0 0 0 0 0 
0 0 0 0 0 0 0 0 0 
0 0 0 0 0 0 0 0 0 
0 0 0 0 0 0 0 0 0 
0 0 0 0 0 0 0 0 0 
0 0 0 0 0 0 0 0 0 
0 0 0 0 0 0 0 0 0 
0 0 0 0 0 0 0 0 0 
0 0 0 0 0 0 0 0 0 
0 0 0 0 0 0 0 0 0 
0 0 0 0 0 0 0 0 0 
0 0 0 0 0 0 0 0 0 
0 0 0 0 0 0 0 0 0 
0 0 0 0 0 0 0 0 0 
0 0 0 0 0 0 0 0 0 
0 0 0 0 0 0 0 0 0 
0 0 0 0 0 0 0 0 0 
0 0 0 0 0 0 0 0 0 
0 0 0 0 0 0 0 0 0 
0 0 0 0 0 0 0 0 0 
0 0 0 0 0 0 0 0 0 
0 0 0 0 0 0 0 0 0 
0 0 0 0 0 0 0 0 0 
0 0 0 0 0 0 0 0 0 
0 0 0 0 0 0 0 0 0 
0 0 0 0 0 0 0 0 0 
0 0 0 0 0 0 0 0 0 
0 0 0 0 0 0 0 0 0 
0 0 0 0 0 0 0 0 0 
0 0 0 0 0 0 0 0 0 
0 0 0 0 0 0 0 0 0 
0 0 0 0 0 0 0 0 0 
0 0 0 0 0 0 0 0 0 
0 0 0 0 0 0 0 0 0 
0 0 0 0 0 0 0 0 0 
0 0 0 0 0 0 0 0 0 
0 0 0 0 0 0 0 0 0 
0 0 0 0 0 0 0 0 0 
0 0 0 0 0 0 0 0 0 
0 0 0 0 0 0 0 0 0 
0 0 0 0 0 0 0 0 0 
0 0 0 0 0 0 0 0 0 
0 0 0 0 0 0 0 0 0 
0 0 0 0 0 0 0 0 0 
0 0 0 0 0 0 0 0 0 
0 0 0 0 0 0 0 0 0 
0 0 0 0 0 0 0 0 0 
0 0 0 0 0 0 0 0 0 
0 0 0 0 0 0 0 0 0 
0 0 0 0 0 0 0 0 0 
0 0 0 0 0 0 0 0 0 
0 0 0 0 0 0 0 0 0 
0 0 0 0 0 0 0 0 0 
0 0 0 0 0 0 0 0 0 
0 0 0 0 0 0 0 0 0 
0 0 0 0 0 0 0 0 0 
0 0 0 0 0 0 0 0 0 
0 0 0 0 0 0 0 0 0 
0 0 0 0 0 0 0 0 0 
0 0 0 0 0 0 0 0 0 
0 0 0 0 0 0 0 0 0 
0 0 0 0 0 0 0 0 0 
0 0 0 0 0 0 0 0 0 
0 0 0 0 0 0 0 0 0 
0 0 0 0 0 0 0 0 0 
0 0 0 0 0 0 0 0 0 
0 0 0 0 0 0 0 0 0 
0 0 0 0 0 0 0 0 0 
0 0 0 0 0 0 0 0 0 
0 0 0 0 0 0 0 0 0 
0 0 0 0 0 0 0 0 0 
0 0 0 0 0 0 0 0 0 
0 0 0 0 0 0 0 0 0 
0 0 0 0 0 0 0 0 0 
0 0 0 0 0 0 0 0 0 
0 0 0 0 0 0 0 0 0 
0 0 0 0 0 0 0 0 0 
0 0 0 0 0 0 0 0 0 
0 0 0 0 0 0 0 0 0 
0 0 0 0 0 0 0 0 0 
0 0 0 0 0 0 0 0 0 
0 0 0 0 0 0 0 0 0 
0 0 0 0 0 0 0 0 0 
0 0 0 0 0 0 0 0 0 
0 0 0 0 0 0 0 0 0 
0 0 0 0 0 0 0 0 0 
0 0 0 0 0 0 0 0 0 
0 0 0 0 0 0 0 0 0 
0 0 0 0 0 0 0 0 0 
0 0 0 0 0 0 0 0 0 
0 0 0 0 0 0 0 0 0 
0 0 0 0 0 0 0 0 0 
0 0 0 0 0 0 0 0 0 
0 0 0 0 0 0 0 0 0 
0 0 0 0 0 0 0 0 0 
0 0 0 0 0 0 0 0 0 
0 0 0 0 0 0 0 0 0 
0 0 0 0 0 0 0 0 0 
0 0 0 0 0 0 0 0 0 
0 0 0 0 0 0 0 0 0 
0 0 0 0 0 0 0 0 0 
0 0 0 0 0 0 0 0 0 
0 0 0 0 0 0 0 0 0 
0 0 0 0 0 0 0 0 0 
0 0 0 0 0 0 0 0 0 
0 0 0 0 0 0 0 0 0 
0 0 0 0 0 0 0 0 0 
0 0 0 0 0 0 0 0 0 
0 0 0 0 0 0 0 0 0 
0 0 0 0 0 0 0 0 0 
0 0 0 0 0 0 0 0 0 
0 0 0 0 0 0 0 0 0 
0 0 0 0 0 0 0 0 0 
0 0 0 0 0 0 0 0 0 
0 0 0 0 0 0 0 0 0 
0 0 0 0 0 0 0 0 0 
0 0 0 0 0 0 0 0 0 
0 0 0 0 0 0 0 0 0 
0 0 0 0 0 0 0 0 0 
0 0 0 0 0 0 0 0 0 
0 0 0 0 0 0 0 0 0 
0 0 0 0 0 0 0 0 0 
0 0 0 0 0 0 0 0 0 
0 0 0 0 0 0 0 0 0 
0 0 0 0 0 0 0 0 0 
0 0 0 0 0 0 0 0 0 
0 0 0 0 0 0 0 0 0 
0 0 0 0 0 0 0 0 0 
0 0 0 0 0 0 0 0 0 
0 0 0 0 0 0 0 0 0 
0 0 0 0 0 0 0 0 0 
0 0 0 0 0 0 0 0 0 
0 0 0 0 0 0 0 0 0 
0 0 0 0 0 0 0 0 0 
0 0 0 0 0 0 0 0 0 
0 0 0 0 0 0 0 0 0 
0 0 0 0 0 0 0 0 0 
0 0 0 0 0 0 0 0 0 
0 0 0 0 0 0 0 0 0 
0 0 0 0 0 0 0 0 0 
0 0 0 0 0 0 0 0 0 
0 0 0 0 0 0 0 0 0 
0 0 0 0 0 0 0 0 0 
0 0 0 0 0 0 0 0 0 
0 0 0 0 0 0 0 0 0 
0 0 0 0 0 0 0 0 0 
0 0 0 0 0 0 0 0 0 
0 0 0 0 0 0 0 0 0 
0 0 0 0 0 0 0 0 0 
0 0 0 0 0 0 0 0 0 
0 0 0 0 0 0 0 0 0 
0 0 0 0 0 0 0 0 0 
0 0 0 0 0 0 0 0 0 
0 0 0 0 0 0 0 0 0 
0 0 0 0 0 0 0 0 0 
0 0 0 0 0 0 0 0 0 
0 0 0 0 0 0 0 0 0 
0 0 0 0 0 0 0 0 0 
0 0 0 0 0 0 0 0 0 
0 0 0 0 0 0 0 0 0 
0 0 0 0 0 0 0 0 0 
0 0 0 0 0 0 0 0 0 
0 0 0 0 0 0 0 0 0 
0 0 0 0 0 0 0 0 0 
0 0 0 0 0 0 0 0 0 
0 0 0 0 0 0 0 0 0 
0 0 0 0 0 0 0 0 0 
0 0 0 0 0 0 0 0 0 
0 0 0 0 0 0 0 0 0 
0 0 0 0 0 0 0 0 0 
0 0 0 0 0 0 0 0 0 
0 0 0 0 0 0 0 0 0 
0 0 0 0 0 0 0 0 0 
0 0 0 0 0 0 0 0 0 
0 0 0 0 0 0 0 0 0 
0 0 0 0 0 0 0 0 0 
0 0 0 0 0 0 0 0 0 
0 0 0 0 0 0 0 0 0 
0 0 0 0 0 0 0 0 0 
0 0 0 0 0 0 0 0 0 
0 0 0 0 0 0 0 0 0 
0 0 0 0 0 0 0 0 0 
0 0 0 0 0 0 0 0 0 
0 0 0 0 0 0 0 0 0 
0 0 0 0 0 0 0 0 0 
0 0 0 0 0 0 0 0 0 
0 0 0 0 0 0 0 0 0 
0 0 0 0 0 0 0 0 0 
0 0 0 0 0 0 0 0 0 
0 0 0 0 0 0 0 0 0 
0 0 0 0 0 0 0 0 0 
0 0 0 0 0 0 0 0 0 
0 0 0 0 0 0 0 0 0 
0 0 0 0 0 0 0 0 0 
0 0 0 0 0 0 0 0 0 
0 0 0 0 0 0 0 0 0 
0 0 0 0 0 0 0 0 0 
0 0 0 0 0 0 0 0 0 
0 0 0 0 0 0 0 0 0 
0 0 0 0 0 0 0 0 0 
0 0 0 0 0 0 0 0 0 
0 0 0 0 0 0 0 0 0 
0 0 0 0 0 0 0 0 0 
0 0 0 0 0 0 0 0 0 
0 0 0 0 0 0 0 0 0 
0 0 0 0 0 0 0 0 0 
0 0 0 0 0 0 0 0 0 
0 0 0 0 0 0 0 0 0 
0 0 0 0 0 0 0 0 0 
0 0 0 0 0 0 0 0 0 
0 0 0 0 0 0 0 0 0 
0 0 0 0 0 0 0 0 0 
0 0 0 0 0 0 0 0 0 
0 0 0 0 0 0 0 0 0 
0 0 0 0 0 0 0 0 0 
0 0 0 0 0 0 0 0 0 
0 0 0 0 0 0 0 0 0 
0 0 0 0 0 0 0 0 0 
0 0 0 0 0 0 0 0 0 
0 0 0 0 0 0 0 0 0 
0 0 0 0 0 0 0 0 0 
0 0 0 0 0 0 0 0 0 
0 0 0 0 0 0 0 0 0 
0 0 0 0 0 0 0 0 0 
0 0 0 0 0 0 0 0 0 
0 0 0 0 0 0 0 0 0 
0 0 0 0 0 0 0 0 0 
0 0 0 0 0 0 0 0 0 
0 0 0 0 0 0 0 0 0 
0 0 0 0 0 0 0 0 0 
0 0 0 0 0 0 0 0 0 
0 0 0 0 0 0 0 0 0 
0 0 0 0 0 0 0 0 0 
0 0 0 0 0 0 0 0 0 
0 0 0 0 0 0 0 0 0 
0 0 0 0 0 0 0 0 0 
0 0 0 0 0 0 0 0 0 
0 0 0 0 0 0 0 0 0 
0 0 0 0 0 0 0 0 0 
0 0 0 0 0 0 0 0 0 
0 0 0 0 0 0 0 0 0 
0 0 0 0 0 0 0 0 0 
0 0 0 0 0 0 0 0 0 
0 0 0 0 0 0 0 0 0 
0 0 0 0 0 0 0 0 0 
0 0 0 0 0 0 0 0 0 
0 0 0 0 0 0 0 0 0 
0 0 0 0 0 0 0 0 0 
0 0 0 0 0 0 0 0 0 
0 0 0 0 0 0 0 0 0 
0 0 0 0 0 0 0 0 0 
0 0 0 0 0 0 0 0 0 
0 0 0 0 0 0 0 0 0 
0 0 0 0 0 0 0 0 0 
0 0 0 0 0 0 0 0 0 
0 0 0 0 0 0 0 0 0 
0 0 0 0 0 0 0 0 0 
0 0 0 0 0 0 0 0 0 
0 0 0 0 0 0 0 0 0 
0 0 0 0 0 0 0 0 0 
0 0 0 0 0 0 0 0 0 
0 0 0 0 0 0 0 0 0 
0 0 0 0 0 0 0 0 0 
0 0 0 0 0 0 0 0 0 
0 0 0 0 0 0 0 0 0 
0 0 0 0 0 0 0 0 0 
0 0 0 0 0 0 0 0 0 
0 0 0 0 0 0 0 0 0 
0 0 0 0 0 0 0 0 0 
0 0 0 0 0 0 0 0 0 
0 0 0 0 0 0 0 0 0 
0 0 0 0 0 0 0 0 0 
0 0 0 0 0 0 0 0 0 
0 0 0 0 0 0 0 0 0 
0 0 0 0 0 0 0 0 0 
0 0 0 0 0 0 0 0 0 
0 0 0 0 0 0 0 0 0 
0 0 0 0 0 0 0 0 0 
0 0 0 0 0 0 0 0 0 
0 0 0 0 0 0 0 0 0 
0 0 0 0 0 0 0 0 0 
0 0 0 0 0 0 0 0 0 
0 0 0 0 0 0 0 0 0 
0 0 0 0 0 0 0 0 0 
0 0 0 0 0 0 0 0 0 
0 0 0 0 0 0 0 0 0 
0 0 0 0 0 0 0 0 0 
0 0 0 0 0 0 0 0 0 
0 0 0 0 0 0 0 0 0 
0 0 0 0 0 0 0 0 0 
0 0 0 0 0 0 0 0 0 
0 0 0 0 0 0 0 0 0 
0 0 0 0 0 0 0 0 0 
0 0 0 0 0 0 0 0 0 
0 0 0 0 0 0 0 0 0 
0 0 0 0 0 0 0 0 0 
0 0 0 0 0 0 0 0 0 
0 0 0 0 0 0 0 0 0 
0 0 0 0 0 0 0 0 0 
0 0 0 0 0 0 0 0 0 
0 0 0 0 0 0 0 0 0 
0 0 0 0 0 0 0 0 0 
0 0 0 0 0 0 0 0 0 
0 0 0 0 0 0 0 0 0 
0 0 0 0 0 0 0 0 0 
0 0 0 0 0 0 0 0 0 
0 0 0 0 0 0 0 0 0 
0 0 0 0 0 0 0 0 0 
0 0 0 0 0 0 0 0 0 
0 0 0 0 0 0 0 0 0 
0 0 0 0 0 0 0 0 0 
0 0 0 0 0 0 0 0 0 
0 0 0 0 0 0 0 0 0 
0 0 0 0 0 0 0 0 0 
0 0 0 0 0 0 0 0 0 
0 0 0 0 0 0 0 0 0 
0 0 0 0 0 0 0 0 0 
0 0 0 0 0 0 0 0 0 
0 0 0 0 0 0 0 0 0 
0 0 0 0 0 0 0 0 0 
0 0 0 0 0 0 0 0 0 
0 0 0 0 0 0 0 0 0 
0 0 0 0 0 0 0 0 0 
0 0 0 0 0 0 0 0 0 
0 0 0 0 0 0 0 0 0 
0 0 0 0 0 0 0 0 0 
0 0 0 0 0 0 0 0 0 
0 0 0 0 0 0 0 0 0 
0 0 0 0 0 0 0 0 0 
0 0 0 0 0 0 0 0 0 
0 0 0 0 0 0 0 0 0 
0 0 0 0 0 0 0 0 0 
0 0 0 0 0 0 0 0 0 
0 0 0 0 0 0 0 0 0 
0 0 0 0 0 0 0 0 0 
0 0 0 0 0 0 0 0 0 
0 0 0 0 0 0 0 0 0 
0 0 0 0 0 0 0 0 0 
0 0 0 0 0 0 0 0 0 
0 0 0 0 0 0 0 0 0 
0 0 0 0 0 0 0 0 0 
0 0 0 0 0 0 0 0 0 
0 0 0 0 0 0 0 0 0 
0 0 0 0 0 0 0 0 0 
0 0 0 0 0 0 0 0 0 
0 0 0 0 0 0 0 0 0 
0 0 0 0 0 0 0 0 0 
0 0 0 0 0 0 0 0 0 
0 0 0 0 0 0 0 0 0 
0 0 0 0 0 0 0 0 0 
0 0 0 0 0 0 0 0 0 
0 0 0 0 0 0 0 0 0 
0 0 0 0 0 0 0 0 0 
0 0 0 0 0 0 0 0 0 
0 0 0 0 0 0 0 0 0 
0 0 0 0 0 0 0 0 0 
0 0 0 0 0 0 0 0 0 
0 0 0 0 0 0 0 0 0 
0 0 0 0 0 0 0 0 0 
0 0 0 0 0 0 0 0 0 
0 0 0 0 0 0 0 0 0 
0 0 0 0 0 0 0 0 0 
0 0 0 0 0 0 0 0 0 
0 0 0 0 0 0 0 0 0 
0 0 0 0 0 0 0 0 0 
0 0 0 0 0 0 0 0 0 
0 0 0 0 0 0 0 0 0 
0 0 0 0 0 0 0 0 0 
0 0 0 0 0 0 0 0 0 
0 0 0 0 0 0 0 0 0 
0 0 0 0 0 0 0 0 0 
0 0 0 0 0 0 0 0 0 
0 0 0 0 0 0 0 0 0 
0 0 0 0 0 0 0 0 0 
0 0 0 0 0 0 0 0 0 
0 0 0 0 0 0 0 0 0 
0 0 0 0 0 0 0 0 0 
0 0 0 0 0 0 0 0 0 
0 0 0 0 0 0 0 0 0 
0 0 0 0 0 0 0 0 0 
0 0 0 0 0 0 0 0 0 
0 0 0 0 0 0 0 0 0 
0 0 0 0 0 0 0 0 0 
0 0 0 0 0 0 0 0 0 
0 0 0 0 0 0 0 0 0 
0 0 0 0 0 0 0 0 0 
0 0 0 0 0 0 0 0 0 
0 0 0 0 0 0 0 0 0 
0 0 0 0 0 0 0 0 0 
0 0 0 0 0 0 0 0 0 
0 0 0 0 0 0 0 0 0 
0 0 0 0 0 0 0 0 0 
0 0 0 0 0 0 0 0 0 
0 0 0 0 0 0 0 0 0 
0 0 0 0 0 0 0 0 0 
0 0 0 0 0 0 0 0 0 
0 0 0 0 0 0 0 0 0 
0 0 0 0 0 0 0 0 0 
0 0 0 0 0 0 0 0 0 
0 0 0 0 0 0 0 0 0 
0 0 0 0 0 0 0 0 0 
0 0 0 0 0 0 0 0 0 
0 0 0 0 0 0 0 0 0 
0 0 0 0 0 0 0 0 0 
0 0 0 0 0 0 0 0 0 
0 0 0 0 0 0 0 0 0 
0 0 0 0 0 0 0 0 0 
0 0 0 0 0 0 0 0 0 
0 0 0 0 0 0 0 0 0 
0 0 0 0 0 0 0 0 0 
0 0 0 0 0 0 0 0 0 
0 0 0 0 0 0 0 0 0 
0 0 0 0 0 0 0 0 0 
0 0 0 0 0 0 0 0 0 
0 0 0 0 0 0 0 0 0 
0 0 0 0 0 0 0 0 0 
0 0 0 0 0 0 0 0 0 
0 0 0 0 0 0 0 0 0 
0 0 0 0 0 0 0 0 0 
0 0 0 0 0 0 0 0 0 
0 0 0 0 0 0 0 0 0 
0 0 0 0 0 0 0 0 0 
0 0 0 0 0 0 0 0 0 
0 0 0 0 0 0 0 0 0 
0 0 0 0 0 0 0 0 0 
0 0 0 0 0 0 0 0 0 
0 0 0 0 0 0 0 0 0 
0 0 0 0 0 0 0 0 0 
0 0 0 0 0 0 0 0 0 
0 0 0 0 0 0 0 0 0 
0 0 0 0 0 0 0 0 0 
0 0 0 0 0 0 0 0 0 
0 0 0 0 0 0 0 0 0 
0 0 0 0 0 0 0 0 0 
0 0 0 0 0 0 0 0 0 
0 0 0 0 0 0 0 0 0 
0 0 0 0 0 0 0 0 0 
0 0 0 0 0 0 0 0 0 
0 0 0 0 0 0 0 0 0 
0 0 0 0 0 0 0 0 0 
0 0 0 0 0 0 0 0 0 
0 0 0 0 0 0 0 0 0 
0 0 0 0 0 0 0 0 0 
0 0 0 0 0 0 0 0 0 
0 0 0 0 0 0 0 0 0 
0 0 0 0 0 0 0 0 0 
0 0 0 0 0 0 0 0 0 
0 0 0 0 0 0 0 0 0 
0 0 0 0 0 0 0 0 0 
0 0 0 0 0 0 0 0 0 
0 0 0 0 0 0 0 0 0 
0 0 0 0 0 0 0 0 0 
0 0 0 0 0 0 0 0 0 
0 0 0 0 0 0 0 0 0 
0 0 0 0 0 0 0 0 0 
0 0 0 0 0 0 0 0 0 
0 0 0 0 0 0 0 0 0 
0 0 0 0 0 0 0 0 0 
0 0 0 0 0 0 0 0 0 
0 0 0 0 0 0 0 0 0 
0 0 0 0 0 0 0 0 0 
0 0 0 0 0 0 0 0 0 
0 0 0 0 0 0 0 0 0 
0 0 0 0 0 0 0 0 0 
0 0 0 0 0 0 0 0 0 
0 0 0 0 0 0 0 0 0 
0 0 0 0 0 0 0 0 0 
0 0 0 0 0 0 0 0 0 
0 0 0 0 0 0 0 0 0 
0 0 0 0 0 0 0 0 0 
0 0 0 0 0 0 0 0 0 
0 0 0 0 0 0 0 0 0 
0 0 0 0 0 0 0 0 0 
0 0 0 0 0 0 0 0 0 
0 0 0 0 0 0 0 0 0 
0 0 0 0 0 0 0 0 0 
0 0 0 0 0 0 0 0 0 
0 0 0 0 0 0 0 0 0 
0 0 0 0 0 0 0 0 0 
0 0 0 0 0 0 0 0 0 
0 0 0 0 0 0 0 0 0 
0 0 0 0 0 0 0 0 0 
0 0 0 0 0 0 0 0 0 
0 0 0 0 0 0 0 0 0 
0 0 0 0 0 0 0 0 0 
0 0 0 0 0 0 0 0 0 
0 0 0 0 0 0 0 0 0 
0 0 0 0 0 0 0 0 0 
0 0 0 0 0 0 0 0 0 
0 0 0 0 0 0 0 0 0 
0 0 0 0 0 0 0 0 0 
0 0 0 0 0 0 0 0 0 
0 0 0 0 0 0 0 0 0 
0 0 0 0 0 0 0 0 0 
0 0 0 0 0 0 0 0 0 
0 0 0 0 0 0 0 0 0 
0 0 0 0 0 0 0 0 0 
0 0 0 0 0 0 0 0 0 
0 0 0 0 0 0 0 0 0 
0 0 0 0 0 0 0 0 0 
0 0 0 0 0 0 0 0 0 
0 0 0 0 0 0 0 0 0 
0 0 0 0 0 0 0 0 0 
0 0 0 0 0 0 0 0 0 
0 0 0 0 0 0 0 0 0 
0 0 0 0 0 0 0 0 0 
0 0 0 0 0 0 0 0 0 
0 0 0 0 0 0 0 0 0 
0 0 0 0 0 0 0 0 0 
0 0 0 0 0 0 0 0 0 
0 0 0 0 0 0 0 0 0 
0 0 0 0 0 0 0 0 0 
0 0 0 0 0 0 0 0 0 
0 0 0 0 0 0 0 0 0 
0 0 0 0 0 0 0 0 0 
0 0 0 0 0 0 0 0 0 
0 0 0 0 0 0 0 0 0 
0 0 0 0 0 0 0 0 0 
0 0 0 0 0 0 0 0 0 
0 0 0 0 0 0 0 0 0 
0 0 0 0 0 0 0 0 0 
0 0 0 0 0 0 0 0 0 
0 0 0 0 0 0 0 0 0 
0 0 0 0 0 0 0 0 0 
0 0 0 0 0 0 0 0 0 
0 0 0 0 0 0 0 0 0 
0 0 0 0 0 0 0 0 0 
0 0 0 0 0 0 0 0 0 
0 0 0 0 0 0 0 0 0 
0 0 0 0 0 0 0 0 0 
0 0 0 0 0 0 0 0 0 
0 0 0 0 0 0 0 0 0 
0 0 0 0 0 0 0 0 0 
0 0 0 0 0 0 0 0 0 
0 0 0 0 0 0 0 0 0 
0 0 0 0 0 0 0 0 0 
0 0 0 0 0 0 0 0 0 
0 0 0 0 0 0 0 0 0 
0 0 0 0 0 0 0 0 0 
0 0 0 0 0 0 0 0 0 
0 0 0 0 0 0 0 0 0 
0 0 0 0 0 0 0 0 0 
0 0 0 0 0 0 0 0 0 
0 0 0 0 0 0 0 0 0 
0 0 0 0 0 0 0 0 0 
0 0 0 0 0 0 0 0 0 
0 0 0 0 0 0 0 0 0 
0 0 0 0 0 0 0 0 0 
0 0 0 0 0 0 0 0 0 
0 0 0 0 0 0 0 0 0 
0 0 0 0 0 0 0 0 0 
0 0 0 0 0 0 0 0 0 
0 0 0 0 0 0 0 0 0 
0 0 0 0 0 0 0 0 0 
0 0 0 0 0 0 0 0 0 
0 0 0 0 0 0 0 0 0 
0 0 0 0 0 0 0 0 0 
0 0 0 0 0 0 0 0 0 
0 0 0 0 0 0 0 0 0 
0 0 0 0 0 0 0 0 0 
0 0 0 0 0 0 0 0 0 
0 0 0 0 0 0 0 0 0 
0 0 0 0 0 0 0 0 0 
0 0 0 0 0 0 0 0 0 
0 0 0 0 0 0 0 0 0 
0 0 0 0 0 0 0 0 0 
0 0 0 0 0 0 0 0 0 
0 0 0 0 0 0 0 0 0 
0 0 0 0 0 0 0 0 0 
0 0 0 0 0 0 0 0 0 
0 0 0 0 0 0 0 0 0 
0 0 0 0 0 0 0 0 0 
0 0 0 0 0 0 0 0 0 
0 0 0 0 0 0 0 0 0 
0 0 0 0 0 0 0 0 0 
0 0 0 0 0 0 0 0 0 
0 0 0 0 0 0 0 0 0 
0 0 0 0 0 0 0 0 0 
0 0 0 0 0 0 0 0 0 
0 0 0 0 0 0 0 0 0 
0 0 0 0 0 0 0 0 0 
0 0 0 0 0 0 0 0 0 
0 0 0 0 0 0 0 0 0 
0 0 0 0 0 0 0 0 0 
0 0 0 0 0 0 0 0 0 
0 0 0 0 0 0 0 0 0 
0 0 0 0 0 0 0 0 0 
0 0 0 0 0 0 0 0 0 
0 0 0 0 0 0 0 0 0 
0 0 0 0 0 0 0 0 0 
0 0 0 0 0 0 0 0 0 
0 0 0 0 0 0 0 0 0 
0 0 0 0 0 0 0 0 0 
0 0 0 0 0 0 0 0 0 
0 0 0 0 0 0 0 0 0 
0 0 0 0 0 0 0 0 0 
0 0 0 0 0 0 0 0 0 
0 0 0 0 0 0 0 0 0 
0 0 0 0 0 0 0 0 0 
0 0 0 0 0 0 0 0 0 
0 0 0 0 0 0 0 0 0 
0 0 0 0 0 0 0 0 0 
0 0 0 0 0 0 0 0 0 
0 0 0 0 0 0 0 0 0 
0 0 0 0 0 0 0 0 0 
0 0 0 0 0 0 0 0 0 
0 0 0 0 0 0 0 0 0 
0 0 0 0 0 0 0 0 0 
0 0 0 0 0 0 0 0 0 
0 0 0 0 0 0 0 0 0 
0 0 0 0 0 0 0 0 0 
0 0 0 0 0 0 0 0 0 
0 0 0 0 0 0 0 0 0 
0 0 0 0 0 0 0 0 0 
0 0 0 0 0 0 0 0 0 
0 0 0 0 0 0 0 0 0 
0 0 0 0 0 0 0 0 0 
0 0 0 0 0 0 0 0 0 
0 0 0 0 0 0 0 0 0 
0 0 0 0 0 0 0 0 0 
0 0 0 0 0 0 0 0 0 
0 0 0 0 0 0 0 0 0 
0 0 0 0 0 0 0 0 0 
0 0 0 0 0 0 0 0 0 
0 0 0 0 0 0 0 0 0 
0 0 0 0 0 0 0 0 0 
0 0 0 0 0 0 0 0 0 
0 0 0 0 0 0 0 0 0 
0 0 0 0 0 0 0 0 0 
0 0 0 0 0 0 0 0 0 
0 0 0 0 0 0 0 0 0 
0 0 0 0 0 0 0 0 0 
0 0 0 0 0 0 0 0 0 
0 0 0 0 0 0 0 0 0 
0 0 0 0 0 0 0 0 0 
0 0 0 0 0 0 0 0 0 
0 0 0 0 0 0 0 0 0 
0 0 0 0 0 0 0 0 0 
0 0 0 0 0 0 0 0 0 
0 0 0 0 0 0 0 0 0 
0 0 0 0 0 0 0 0 0 
0 0 0 0 0 0 0 0 0 
0 0 0 0 0 0 0 0 0 
0 0 0 0 0 0 0 0 0 
0 0 0 0 0 0 0 0 0 
0 0 0 0 0 0 0 0 0 
0 0 0 0 0 0 0 0 0 
0 0 0 0 0 0 0 0 0 
0 0 0 0 0 0 0 0 0 
0 0 0 0 0 0 0 0 0 
0 0 0 0 0 0 0 0 0 
0 0 0 0 0 0 0 0 0 
0 0 0 0 0 0 0 0 0 
0 0 0 0 0 0 0 0 0 
0 0 0 0 0 0 0 0 0 
0 0 0 0 0 0 0 0 0 
0 0 0 0 0 0 0 0 0 
0 0 0 0 0 0 0 0 0 
0 0 0 0 0 0 0 0 0 
0 0 0 0 0 0 0 0 0 
0 0 0 0 0 0 0 0 0 
0 0 0 0 0 0 0 0 0 
0 0 0 0 0 0 0 0 0 
0 0 0 0 0 0 0 0 0 
0 0 0 0 0 0 0 0 0 
0 0 0 0 0 0 0 0 0 
0 0 0 0 0 0 0 0 0 
0 0 0 0 0 0 0 0 0 
0 0 0 0 0 0 0 0 0 
0 0 0 0 0 0 0 0 0 
0 0 0 0 0 0 0 0 0 
0 0 0 0 0 0 0 0 0 
0 0 0 0 0 0 0 0 0 
0 0 0 0 0 0 0 0 0 
0 0 0 0 0 0 0 0 0 
0 0 0 0 0 0 0 0 0 
0 0 0 0 0 0 0 0 0 
0 0 0 0 0 0 0 0 0 
0 0 0 0 0 0 0 0 0 
0 0 0 0 0 0 0 0 0 
0 0 0 0 0 0 0 0 0 
0 0 0 0 0 0 0 0 0 
0 0 0 0 0 0 0 0 0 
0 0 0 0 0 0 0 0 0 
0 0 0 0 0 0 0 0 0 
0 0 0 0 0 0 0 0 0 
0 0 0 0 0 0 0 0 0 
0 0 0 0 0 0 0 0 0 
0 0 0 0 0 0 0 0 0 
0 0 0 0 0 0 0 0 0 
0 0 0 0 0 0 0 0 0 
0 0 0 0 0 0 0 0 0 
0 0 0 0 0 0 0 0 0 
0 0 0 0 0 0 0 0 0 
0 0 0 0 0 0 0 0 0 
0 0 0 0 0 0 0 0 0 
0 0 0 0 0 0 0 0 0 
0 0 0 0 0 0 0 0 0 
0 0 0 0 0 0 0 0 0 
0 0 0 0 0 0 0 0 0 
0 0 0 0 0 0 0 0 0 
0 0 0 0 0 0 0 0 0 
0 0 0 0 0 0 0 0 0 
0 0 0 0 0 0 0 0 0 
0 0 0 0 0 0 0 0 0 
0 0 0 0 0 0 0 0 0 
0 0 0 0 0 0 0 0 0 
0 0 0 0 0 0 0 0 0 
0 0 0 0 0 0 0 0 0 
0 0 0 0 0 0 0 0 0 
0 0 0 0 0 0 0 0 0 
0 0 0 0 0 0 0 0 0 
0 0 0 0 0 0 0 0 0 
0 0 0 0 0 0 0 0 0 
0 0 0 0 0 0 0 0 0 
0 0 0 0 0 0 0 0 0 
0 0 0 0 0 0 0 0 0 
0 0 0 0 0 0 0 0 0 
0 0 0 0 0 0 0 0 0 
0 0 0 0 0 0 0 0 0 
0 0 0 0 0 0 0 0 0 
0 0 0 0 0 0 0 0 0 
0 0 0 0 0 0 0 0 0 
0 0 0 0 0 0 0 0 0 
0 0 0 0 0 0 0 0 0 
0 0 0 0 0 0 0 0 0 
0 0 0 0 0 0 0 0 0 
0 0 0 0 0 0 0 0 0 
0 0 0 0 0 0 0 0 0 
0 0 0 0 0 0 0 0 0 
0 0 0 0 0 0 0 0 0 
0 0 0 0 0 0 0 0 0 
0 0 0 0 0 0 0 0 0 
0 0 0 0 0 0 0 0 0 
0 0 0 0 0 0 0 0 0 
0 0 0 0 0 0 0 0 0 
0 0 0 0 0 0 0 0 0 
0 0 0 0 0 0 0 0 0 
0 0 0 0 0 0 0 0 0 
0 0 0 0 0 0 0 0 0 
0 0 0 0 0 0 0 0 0 
0 0 0 0 0 0 0 0 0 
0 0 0 0 0 0 0 0 0 
0 0 0 0 0 0 0 0 0 
0 0 0 0 0 0 0 0 0 
0 0 0 0 0 0 0 0 0 
0 0 0 0 0 0 0 0 0 
0 0 0 0 0 0 0 0 0 
0 0 0 0 0 0 0 0 0 
0 0 0 0 0 0 0 0 0 
0 0 0 0 0 0 0 0 0 
0 0 0 0 0 0 0 0 0 
0 0 0 0 0 0 0 0 0 
0 0 0 0 0 0 0 0 0 
0 0 0 0 0 0 0 0 0 
0 0 0 0 0 0 0 0 0 
0 0 0 0 0 0 0 0 0 
0 0 0 0 0 0 0 0 0 
0 0 0 0 0 0 0 0 0 
0 0 0 0 0 0 0 0 0 
0 0 0 0 0 0 0 0 0 
0 0 0 0 0 0 0 0 0 
0 0 0 0 0 0 0 0 0 
0 0 0 0 0 0 0 0 0 
0 0 0 0 0 0 0 0 0 
0 0 0 0 0 0 0 0 0 
0 0 0 0 0 0 0 0 0 
0 0 0 0 0 0 0 0 0 
0 0 0 0 0 0 0 0 0 
0 0 0 0 0 0 0 0 0 
0 0 0 0 0 0 0 0 0 
0 0 0 0 0 0 0 0 0 
0 0 0 0 0 0 0 0 0 
0 0 0 0 0 0 0 0 0 
0 0 0 0 0 0 0 0 0 
0 0 0 0 0 0 0 0 0 
0 0 0 0 0 0 0 0 0 
0 0 0 0 0 0 0 0 0 
0 0 0 0 0 0 0 0 0 
0 0 0 0 0 0 0 0 0 
0 0 0 0 0 0 0 0 0 
0 0 0 0 0 0 0 0 0 
0 0 0 0 0 0 0 0 0 
0 0 0 0 0 0 0 0 0 
0 0 0 0 0 0 0 0 0 
0 0 0 0 0 0 0 0 0 
0 0 0 0 0 0 0 0 0 
0 0 0 0 0 0 0 0 0 
0 0 0 0 0 0 0 0 0 
0 0 0 0 0 0 0 0 0 
0 0 0 0 0 0 0 0 0 
0 0 0 0 0 0 0 0 0 
0 0 0 0 0 0 0 0 0 
0 0 0 0 0 0 0 0 0 
0 0 0 0 0 0 0 0 0 
0 0 0 0 0 0 0 0 0 
0 0 0 0 0 0 0 0 0 
0 0 0 0 0 0 0 0 0 
0 0 0 0 0 0 0 0 0 
0 0 0 0 0 0 0 0 0 
0 0 0 0 0 0 0 0 0 
0 0 0 0 0 0 0 0 0 
0 0 0 0 0 0 0 0 0 
0 0 0 0 0 0 0 0 0 
0 0 0 0 0 0 0 0 0 
0 0 0 0 0 0 0 0 0 
0 0 0 0 0 0 0 0 0 
0 0 0 0 0 0 0 0 0 
0 0 0 0 0 0 0 0 0 
0 0 0 0 0 0 0 0 0 
0 0 0 0 0 0 0 0 0 
0 0 0 0 0 0 0 0 0 
0 0 0 0 0 0 0 0 0 
0 0 0 0 0 0 0 0 0 
0 0 0 0 0 0 0 0 0 
0 0 0 0 0 0 0 0 0 
0 0 0 0 0 0 0 0 0 
0 0 0 0 0 0 0 0 0 
0 0 0 0 0 0 0 0 0 
0 0 0 0 0 0 0 0 0 
0 0 0 0 0 0 0 0 0 
0 0 0 0 0 0 0 0 0 
0 0 0 0 0 0 0 0 0 
0 0 0 0 0 0 0 0 0 
0 0 0 0 0 0 0 0 0 
0 0 0 0 0 0 0 0 0 
0 0 0 0 0 0 0 0 0 
0 0 0 0 0 0 0 0 0 
0 0 0 0 0 0 0 0 0 
0 0 0 0 0 0 0 0 0 
0 0 0 0 0 0 0 0 0 
0 0 0 0 0 0 0 0 0 
0 0 0 0 0 0 0 0 0 
0 0 0 0 0 0 0 0 0 
0 0 0 0 0 0 0 0 0 
0 0 0 0 0 0 0 0 0 
0 0 0 0 0 0 0 0 0 
0 0 0 0 0 0 0 0 0 
0 0 0 0 0 0 0 0 0 
0 0 0 0 0 0 0 0 0 
0 0 0 0 0 0 0 0 0 
0 0 0 0 0 0 0 0 0 
0 0 0 0 0 0 0 0 0 
0 0 0 0 0 0 0 0 0 
0 0 0 0 0 0 0 0 0 
0 0 0 0 0 0 0 0 0 
0 0 0 0 0 0 0 0 0 
0 0 0 0 0 0 0 0 0 
0 0 0 0 0 0 0 0 0 
0 0 0 0 0 0 0 0 0 
0 0 0 0 0 0 0 0 0 
0 0 0 0 0 0 0 0 0 
0 0 0 0 0 0 0 0 0 
0 0 0 0 0 0 0 0 0 
0 0 0 0 0 0 0 0 0 
0 0 0 0 0 0 0 0 0 
0 0 0 0 0 0 0 0 0 
0 0 0 0 0 0 0 0 0 
0 0 0 0 0 0 0 0 0 
0 0 0 0 0 0 0 0 0 
0 0 0 0 0 0 0 0 0 
0 0 0 0 0 0 0 0 0 
0 0 0 0 0 0 0 0 0 
0 0 0 0 0 0 0 0 0 
0 0 0 0 0 0 0 0 0 
0 0 0 0 0 0 0 0 0 
0 0 0 0 0 0 0 0 0 
0 0 0 0 0 0 0 0 0 
0 0 0 0 0 0 0 0 0 
0 0 0 0 0 0 0 0 0 
0 0 0 0 0 0 0 0 0 
0 0 0 0 0 0 0 0 0 
0 0 0 0 0 0 0 0 0 
0 0 0 0 0 0 0 0 0 
0 0 0 0 0 0 0 0 0 
0 0 0 0 0 0 0 0 0 
0 0 0 0 0 0 0 0 0 
0 0 0 0 0 0 0 0 0 
0 0 0 0 0 0 0 0 0 
0 0 0 0 0 0 0 0 0 
0 0 0 0 0 0 0 0 0 
0 0 0 0 0 0 0 0 0 
0 0 0 0 0 0 0 0 0 
0 0 0 0 0 0 0 0 0 
0 0 0 0 0 0 0 0 0 
0 0 0 0 0 0 0 0 0 
0 0 0 0 0 0 0 0 0 
0 0 0 0 0 0 0 0 0 
0 0 0 0 0 0 0 0 0 
0 0 0 0 0 0 0 0 0 
0 0 0 0 0 0 0 0 0 
0 0 0 0 0 0 0 0 0 
0 0 0 0 0 0 0 0 0 
0 0 0 0 0 0 0 0 0 
0 0 0 0 0 0 0 0 0 
0 0 0 0 0 0 0 0 0 
0 0 0 0 0 0 0 0 0 
0 0 0 0 0 0 0 0 0 
0 0 0 0 0 0 0 0 0 
0 0 0 0 0 0 0 0 0 
0 0 0 0 0 0 0 0 0 
0 0 0 0 0 0 0 0 0 
0 0 0 0 0 0 0 0 0 
0 0 0 0 0 0 0 0 0 
0 0 0 0 0 0 0 0 0 
0 0 0 0 0 0 0 0 0 
0 0 0 0 0 0 0 0 0 
0 0 0 0 0 0 0 0 0 
0 0 0 0 0 0 0 0 0 
0 0 0 0 0 0 0 0 0 
0 0 0 0 0 0 0 0 0 
0 0 0 0 0 0 0 0 0 
0 0 0 0 0 0 0 0 0 
0 0 0 0 0 0 0 0 0 
0 0 0 0 0 0 0 0 0 
0 0 0 0 0 0 0 0 0 
0 0 0 0 0 0 0 0 0 
0 0 0 0 0 0 0 0 0 
0 0 0 0 0 0 0 0 0 
0 0 0 0 0 0 0 0 0 
0 0 0 0 0 0 0 0 0 
0 0 0 0 0 0 0 0 0 
0 0 0 0 0 0 0 0 0 
0 0 0 0 0 0 0 0 0 
0 0 0 0 0 0 0 0 0 
0 0 0 0 0 0 0 0 0 
0 0 0 0 0 0 0 0 0 
0 0 0 0 0 0 0 0 0 
0 0 0 0 0 0 0 0 0 
0 0 0 0 0 0 0 0 0 
0 0 0 0 0 0 0 0 0 
0 0 0 0 0 0 0 0 0 
0 0 0 0 0 0 0 0 0 
0 0 0 0 0 0 0 0 0 
0 0 0 0 0 0 0 0 0 
0 0 0 0 0 0 0 0 0 
0 0 0 0 0 0 0 0 0 
0 0 0 0 0 0 0 0 0 
0 0 0 0 0 0 0 0 0 
0 0 0 0 0 0 0 0 0 
0 0 0 0 0 0 0 0 0 
0 0 0 0 0 0 0 0 0 
0 0 0 0 0 0 0 0 0 
0 0 0 0 0 0 0 0 0 
0 0 0 0 0 0 0 0 0 
0 0 0 0 0 0 0 0 0 
0 0 0 0 0 0 0 0 0 
0 0 0 0 0 0 0 0 0 
0 0 0 0 0 0 0 0 0 
0 0 0 0 0 0 0 0 0 
0 0 0 0 0 0 0 0 0 
0 0 0 0 0 0 0 0 0 
0 0 0 0 0 0 0 0 0 
0 0 0 0 0 0 0 0 0 
0 0 0 0 0 0 0 0 0 
0 0 0 0 0 0 0 0 0 
0 0 0 0 0 0 0 0 0 
0 0 0 0 0 0 0 0 0 
0 0 0 0 0 0 0 0 0 
0 0 0 0 0 0 0 0 0 
0 0 0 0 0 0 0 0 0 
0 0 0 0 0 0 0 0 0 
0 0 0 0 0 0 0 0 0 
0 0 0 0 0 0 0 0 0 
0 0 0 0 0 0 0 0 0 
0 0 0 0 0 0 0 0 0 
0 0 0 0 0 0 0 0 0 
0 0 0 0 0 0 0 0 0 
0 0 0 0 0 0 0 0 0 
0 0 0 0 0 0 0 0 0 
0 0 0 0 0 0 0 0 0 
0 0 0 0 0 0 0 0 0 
0 0 0 0 0 0 0 0 0 
0 0 0 0 0 0 0 0 0 
0 0 0 0 0 0 0 0 0 
0 0 0 0 0 0 0 0 0 
0 0 0 0 0 0 0 0 0 
0 0 0 0 0 0 0 0 0 
0 0 0 0 0 0 0 0 0 
0 0 0 0 0 0 0 0 0 
0 0 0 0 0 0 0 0 0 
0 0 0 0 0 0 0 0 0 
0 0 0 0 0 0 0 0 0 
0 0 0 0 0 0 0 0 0 
0 0 0 0 0 0 0 0 0 
0 0 0 0 0 0 0 0 0 
0 0 0 0 0 0 0 0 0 
0 0 0 0 0 0 0 0 0 
0 0 0 0 0 0 0 0 0 
0 0 0 0 0 0 0 0 0 
0 0 0 0 0 0 0 0 0 
0 0 0 0 0 0 0 0 0 
0 0 0 0 0 0 0 0 0 
0 0 0 0 0 0 0 0 0 
0 0 0 0 0 0 0 0 0 
0 0 0 0 0 0 0 0 0 
0 0 0 0 0 0 0 0 0 
0 0 0 0 0 0 0 0 0 
0 0 0 0 0 0 0 0 0 
0 0 0 0 0 0 0 0 0 
0 0 0 0 0 0 0 0 0 
0 0 0 0 0 0 0 0 0 
0 0 0 0 0 0 0 0 0 
0 0 0 0 0 0 0 0 0 
0 0 0 0 0 0 0 0 0 
0 0 0 0 0 0 0 0 0 
0 0 0 0 0 0 0 0 0 
0 0 0 0 0 0 0 0 0 
0 0 0 0 0 0 0 0 0 
0 0 0 0 0 0 0 0 0 
0 0 0 0 0 0 0 0 0 
0 0 0 0 0 0 0 0 0 
0 0 0 0 0 0 0 0 0 
0 0 0 0 0 0 0 0 0 
0 0 0 0 0 0 0 0 0 
0 0 0 0 0 0 0 0 0 
0 0 0 0 0 0 0 0 0 
0 0 0 0 0 0 0 0 0 
0 0 0 0 0 0 0 0 0 
0 0 0 0 0 0 0 0 0 
0 0 0 0 0 0 0 0 0 
0 0 0 0 0 0 0 0 0 
0 0 0 0 0 0 0 0 0 
0 0 0 0 0 0 0 0 0 
0 0 0 0 0 0 0 0 0 
0 0 0 0 0 0 0 0 0 
0 0 0 0 0 0 0 0 0 
0 0 0 0 0 0 0 0 0 
0 0 0 0 0 0 0 0 0 
0 0 0 0 0 0 0 0 0 
0 0 0 0 0 0 0 0 0 
0 0 0 0 0 0 0 0 0 
0 0 0 0 0 0 0 0 0 
0 0 0 0 0 0 0 0 0 
0 0 0 0 0 0 0 0 0 
0 0 0 0 0 0 0 0 0 
0 0 0 0 0 0 0 0 0 
0 0 0 0 0 0 0 0 0 
0 0 0 0 0 0 0 0 0 
0 0 0 0 0 0 0 0 0 
0 0 0 0 0 0 0 0 0 
0 0 0 0 0 0 0 0 0 
0 0 0 0 0 0 0 0 0 
0 0 0 0 0 0 0 0 0 
0 0 0 0 0 0 0 0 0 
0 0 0 0 0 0 0 0 0 
0 0 0 0 0 0 0 0 0 
0 0 0 0 0 0 0 0 0 
0 0 0 0 0 0 0 0 0 
0 0 0 0 0 0 0 0 0 
0 0 0 0 0 0 0 0 0 
0 0 0 0 0 0 0 0 0 
0 0 0 0 0 0 0 0 0 
0 0 0 0 0 0 0 0 0 
0 0 0 0 0 0 0 0 0 
0 0 0 0 0 0 0 0 0 
0 0 0 0 0 0 0 0 0 
0 0 0 0 0 0 0 0 0 
0 0 0 0 0 0 0 0 0 
0 0 0 0 0 0 0 0 0 
0 0 0 0 0 0 0 0 0 
0 0 0 0 0 0 0 0 0 
0 0 0 0 0 0 0 0 0 
0 0 0 0 0 0 0 0 0 
0 0 0 0 0 0 0 0 0 
0 0 0 0 0 0 0 0 0 
0 0 0 0 0 0 0 0 0 
0 0 0 0 0 0 0 0 0 
0 0 0 0 0 0 0 0 0 
0 0 0 0 0 0 0 0 0 
0 0 0 0 0 0 0 0 0 
0 0 0 0 0 0 0 0 0 
0 0 0 0 0 0 0 0 0 
0 0 0 0 0 0 0 0 0 
0 0 0 0 0 0 0 0 0 
0 0 0 0 0 0 0 0 0 
0 0 0 0 0 0 0 0 0 
0 0 0 0 0 0 0 0 0 
0 0 0 0 0 0 0 0 0 
0 0 0 0 0 0 0 0 0 
0 0 0 0 0 0 0 0 0 
0 0 0 0 0 0 0 0 0 
0 0 0 0 0 0 0 0 0 
0 0 0 0 0 0 0 0 0 
0 0 0 0 0 0 0 0 0 
0 0 0 0 0 0 0 0 0 
0 0 0 0 0 0 0 0 0 
0 0 0 0 0 0 0 0 0 
0 0 0 0 0 0 0 0 0 
0 0 0 0 0 0 0 0 0 
0 0 0 0 0 0 0 0 0 
0 0 0 0 0 0 0 0 0 
0 0 0 0 0 0 0 0 0 
0 0 0 0 0 0 0 0 0 
0 0 0 0 0 0 0 0 0 
0 0 0 0 0 0 0 0 0 
0 0 0 0 0 0 0 0 0 
0 0 0 0 0 0 0 0 0 
0 0 0 0 0 0 0 0 0 
0 0 0 0 0 0 0 0 0 
0 0 0 0 0 0 0 0 0 
0 0 0 0 0 0 0 0 0 
0 0 0 0 0 0 0 0 0 
0 0 0 0 0 0 0 0 0 
0 0 0 0 0 0 0 0 0 
0 0 0 0 0 0 0 0 0 
0 0 0 0 0 0 0 0 0 
0 0 0 0 0 0 0 0 0 
0 0 0 0 0 0 0 0 0 
0 0 0 0 0 0 0 0 0 
0 0 0 0 0 0 0 0 0 
0 0 0 0 0 0 0 0 0 
0 0 0 0 0 0 0 0 0 
0 0 0 0 0 0 0 0 0 
0 0 0 0 0 0 0 0 0 
0 0 0 0 0 0 0 0 0 
0 0 0 0 0 0 0 0 0 
0 0 0 0 0 0 0 0 0 
0 0 0 0 0 0 0 0 0 
0 0 0 0 0 0 0 0 0 
0 0 0 0 0 0 0 0 0 
0 0 0 0 0 0 0 0 0 
0 0 0 0 0 0 0 0 0 
0 0 0 0 0 0 0 0 0 
0 0 0 0 0 0 0 0 0 
0 0 0 0 0 0 0 0 0 
0 0 0 0 0 0 0 0 0 
0 0 0 0 0 0 0 0 0 
0 0 0 0 0 0 0 0 0 
0 0 0 0 0 0 0 0 0 
0 0 0 0 0 0 0 0 0 
0 0 0 0 0 0 0 0 0 
0 0 0 0 0 0 0 0 0 
0 0 0 0 0 0 0 0 0 
0 0 0 0 0 0 0 0 0 
0 0 0 0 0 0 0 0 0 
0 0 0 0 0 0 0 0 0 
0 0 0 0 0 0 0 0 0 
0 0 0 0 0 0 0 0 0 
0 0 0 0 0 0 0 0 0 
0 0 0 0 0 0 0 0 0 
0 0 0 0 0 0 0 0 0 
0 0 0 0 0 0 0 0 0 
0 0 0 0 0 0 0 0 0 
0 0 0 0 0 0 0 0 0 
0 0 0 0 0 0 0 0 0 
0 0 0 0 0 0 0 0 0 
0 0 0 0 0 0 0 0 0 
0 0 0 0 0 0 0 0 0 
0 0 0 0 0 0 0 0 0 
0 0 0 0 0 0 0 0 0 
0 0 0 0 0 0 0 0 0 
0 0 0 0 0 0 0 0 0 
0 0 0 0 0 0 0 0 0 
0 0 0 0 0 0 0 0 0 
0 0 0 0 0 0 0 0 0 
0 0 0 0 0 0 0 0 0 
0 0 0 0 0 0 0 0 0 
0 0 0 0 0 0 0 0 0 
0 0 0 0 0 0 0 0 0 
0 0 0 0 0 0 0 0 0 
0 0 0 0 0 0 0 0 0 
0 0 0 0 0 0 0 0 0 
0 0 0 0 0 0 0 0 0 
0 0 0 0 0 0 0 0 0 
0 0 0 0 0 0 0 0 0 
0 0 0 0 0 0 0 0 0 
0 0 0 0 0 0 0 0 0 
0 0 0 0 0 0 0 0 0 
0 0 0 0 0 0 0 0 0 
0 0 0 0 0 0 0 0 0 
0 0 0 0 0 0 0 0 0 
0 0 0 0 0 0 0 0 0 
0 0 0 0 0 0 0 0 0 
0 0 0 0 0 0 0 0 0 
0 0 0 0 0 0 0 0 0 
0 0 0 0 0 0 0 0 0 
0 0 0 0 0 0 0 0 0 
0 0 0 0 0 0 0 0 0 
0 0 0 0 0 0 0 0 0 
0 0 0 0 0 0 0 0 0 
0 0 0 0 0 0 0 0 0 
0 0 0 0 0 0 0 0 0 
0 0 0 0 0 0 0 0 0 
0 0 0 0 0 0 0 0 0 
0 0 0 0 0 0 0 0 0 
0 0 0 0 0 0 0 0 0 
0 0 0 0 0 0 0 0 0 
0 0 0 0 0 0 0 0 0 
0 0 0 0 0 0 0 0 0 
0 0 0 0 0 0 0 0 0 
0 0 0 0 0 0 0 0 0 
0 0 0 0 0 0 0 0 0 
0 0 0 0 0 0 0 0 0 
0 0 0 0 0 0 0 0 0 
0 0 0 0 0 0 0 0 0 
0 0 0 0 0 0 0 0 0 
0 0 0 0 0 0 0 0 0 
0 0 0 0 0 0 0 0 0 
0 0 0 0 0 0 0 0 0 
0 0 0 0 0 0 0 0 0 
0 0 0 0 0 0 0 0 0 
0 0 0 0 0 0 0 0 0 
0 0 0 0 0 0 0 0 0 
0 0 0 0 0 0 0 0 0 
0 0 0 0 0 0 0 0 0 
0 0 0 0 0 0 0 0 0 
0 0 0 0 0 0 0 0 0 
0 0 0 0 0 0 0 0 0 
0 0 0 0 0 0 0 0 0 
0 0 0 0 0 0 0 0 0 
0 0 0 0 0 0 0 0 0 
0 0 0 0 0 0 0 0 0 
0 0 0 0 0 0 0 0 0 
0 0 0 0 0 0 0 0 0 
0 0 0 0 0 0 0 0 0 
0 0 0 0 0 0 0 0 0 
0 0 0 0 0 0 0 0 0 
0 0 0 0 0 0 0 0 0 
0 0 0 0 0 0 0 0 0 
0 0 0 0 0 0 0 0 0 
0 0 0 0 0 0 0 0 0 
0 0 0 0 0 0 0 0 0 
0 0 0 0 0 0 0 0 0 
0 0 0 0 0 0 0 0 0 
0 0 0 0 0 0 0 0 0 
0 0 0 0 0 0 0 0 0 
0 0 0 0 0 0 0 0 0 
0 0 0 0 0 0 0 0 0 
0 0 0 0 0 0 0 0 0 
0 0 0 0 0 0 0 0 0 
0 0 0 0 0 0 0 0 0 
0 0 0 0 0 0 0 0 0 
0 0 0 0 0 0 0 0 0 
0 0 0 0 0 0 0 0 0 
0 0 0 0 0 0 0 0 0 
0 0 0 0 0 0 0 0 0 
0 0 0 0 0 0 0 0 0 
0 0 0 0 0 0 0 0 0 
0 0 0 0 0 0 0 0 0 
0 0 0 0 0 0 0 0 0 
0 0 0 0 0 0 0 0 0 
0 0 0 0 0 0 0 0 0 
0 0 0 0 0 0 0 0 0 
0 0 0 0 0 0 0 0 0 
0 0 0 0 0 0 0 0 0 
0 0 0 0 0 0 0 0 0 
0 0 0 0 0 0 0 0 0 
0 0 0 0 0 0 0 0 0 
0 0 0 0 0 0 0 0 0 
0 0 0 0 0 0 0 0 0 
0 0 0 0 0 0 0 0 0 
0 0 0 0 0 0 0 0 0 
0 0 0 0 0 0 0 0 0 
0 0 0 0 0 0 0 0 0 
0 0 0 0 0 0 0 0 0 
0 0 0 0 0 0 0 0 0 
0 0 0 0 0 0 0 0 0 
0 0 0 0 0 0 0 0 0 
0 0 0 0 0 0 0 0 0 
0 0 0 0 0 0 0 0 0 
0 0 0 0 0 0 0 0 0 
0 0 0 0 0 0 0 0 0 
0 0 0 0 0 0 0 0 0 
0 0 0 0 0 0 0 0 0 
0 0 0 0 0 0 0 0 0 
0 0 0 0 0 0 0 0 0 
0 0 0 0 0 0 0 0 0 
0 0 0 0 0 0 0 0 0 
0 0 0 0 0 0 0 0 0 
0 0 0 0 0 0 0 0 0 
0 0 0 0 0 0 0 0 0 
0 0 0 0 0 0 0 0 0 
0 0 0 0 0 0 0 0 0 
0 0 0 0 0 0 0 0 0 
0 0 0 0 0 0 0 0 0 
0 0 0 0 0 0 0 0 0 
0 0 0 0 0 0 0 0 0 
0 0 0 0 0 0 0 0 0 
0 0 0 0 0 0 0 0 0 
0 0 0 0 0 0 0 0 0 
0 0 0 0 0 0 0 0 0 
0 0 0 0 0 0 0 0 0 
0 0 0 0 0 0 0 0 0 
0 0 0 0 0 0 0 0 0 
0 0 0 0 0 0 0 0 0 
0 0 0 0 0 0 0 0 0 
0 0 0 0 0 0 0 0 0 
0 0 0 0 0 0 0 0 0 
0 0 0 0 0 0 0 0 0 
0 0 0 0 0 0 0 0 0 
0 0 0 0 0 0 0 0 0 
0 0 0 0 0 0 0 0 0 
0 0 0 0 0 0 0 0 0 
0 0 0 0 0 0 0 0 0 
0 0 0 0 0 0 0 0 0 
0 0 0 0 0 0 0 0 0 
0 0 0 0 0 0 0 0 0 
0 0 0 0 0 0 0 0 0 
0 0 0 0 0 0 0 0 0 
0 0 0 0 0 0 0 0 0 
0 0 0 0 0 0 0 0 0 
0 0 0 0 0 0 0 0 0 
0 0 0 0 0 0 0 0 0 
0 0 0 0 0 0 0 0 0 
0 0 0 0 0 0 0 0 0 
0 0 0 0 0 0 0 0 0 
0 0 0 0 0 0 0 0 0 
0 0 0 0 0 0 0 0 0 
0 0 0 0 0 0 0 0 0 
0 0 0 0 0 0 0 0 0 
0 0 0 0 0 0 0 0 0 
0 0 0 0 0 0 0 0 0 
0 0 0 0 0 0 0 0 0 
0 0 0 0 0 0 0 0 0 
0 0 0 0 0 0 0 0 0 
0 0 0 0 0 0 0 0 0 
0 0 0 0 0 0 0 0 0 
0 0 0 0 0 0 0 0 0 
0 0 0 0 0 0 0 0 0 
0 0 0 0 0 0 0 0 0 
0 0 0 0 0 0 0 0 0 
0 0 0 0 0 0 0 0 0 
0 0 0 0 0 0 0 0 0 
0 0 0 0 0 0 0 0 0 
0 0 0 0 0 0 0 0 0 
0 0 0 0 0 0 0 0 0 
0 0 0 0 0 0 0 0 0 
0 0 0 0 0 0 0 0 0 
0 0 0 0 0 0 0 0 0 
0 0 0 0 0 0 0 0 0 
0 0 0 0 0 0 0 0 0 
0 0 0 0 0 0 0 0 0 
0 0 0 0 0 0 0 0 0 
0 0 0 0 0 0 0 0 0 
0 0 0 0 0 0 0 0 0 
0 0 0 0 0 0 0 0 0 
0 0 0 0 0 0 0 0 0 
0 0 0 0 0 0 0 0 0 
0 0 0 0 0 0 0 0 0 
0 0 0 0 0 0 0 0 0 
0 0 0 0 0 0 0 0 0 
0 0 0 0 0 0 0 0 0 
0 0 0 0 0 0 0 0 0 
0 0 0 0 0 0 0 0 0 
0 0 0 0 0 0 0 0 0 
0 0 0 0 0 0 0 0 0 
0 0 0 0 0 0 0 0 0 
0 0 0 0 0 0 0 0 0 
0 0 0 0 0 0 0 0 0 
0 0 0 0 0 0 0 0 0 
0 0 0 0 0 0 0 0 0 
0 0 0 0 0 0 0 0 0 
0 0 0 0 0 0 0 0 0 
0 0 0 0 0 0 0 0 0 
0 0 0 0 0 0 0 0 0 
0 0 0 0 0 0 0 0 0 
0 0 0 0 0 0 0 0 0 
0 0 0 0 0 0 0 0 0 
0 0 0 0 0 0 0 0 0 
0 0 0 0 0 0 0 0 0 
0 0 0 0 0 0 0 0 0 
0 0 0 0 0 0 0 0 0 
0 0 0 0 0 0 0 0 0 
0 0 0 0 0 0 0 0 0 
0 0 0 0 0 0 0 0 0 
0 0 0 0 0 0 0 0 0 
0 0 0 0 0 0 0 0 0 
0 0 0 0 0 0 0 0 0 
0 0 0 0 0 0 0 0 0 
0 0 0 0 0 0 0 0 0 
0 0 0 0 0 0 0 0 0 
0 0 0 0 0 0 0 0 0 
0 0 0 0 0 0 0 0 0 
0 0 0 0 0 0 0 0 0 
0 0 0 0 0 0 0 0 0 
0 0 0 0 0 0 0 0 0 
0 0 0 0 0 0 0 0 0 
0 0 0 0 0 0 0 0 0 
0 0 0 0 0 0 0 0 0 
0 0 0 0 0 0 0 0 0 
0 0 0 0 0 0 0 0 0 
0 0 0 0 0 0 0 0 0 
0 0 0 0 0 0 0 0 0 
0 0 0 0 0 0 0 0 0 
0 0 0 0 0 0 0 0 0 
0 0 0 0 0 0 0 0 0 
0 0 0 0 0 0 0 0 0 
0 0 0 0 0 0 0 0 0 
0 0 0 0 0 0 0 0 0 
0 0 0 0 0 0 0 0 0 
0 0 0 0 0 0 0 0 0 
0 0 0 0 0 0 0 0 0 
0 0 0 0 0 0 0 0 0 
0 0 0 0 0 0 0 0 0 
0 0 0 0 0 0 0 0 0 
0 0 0 0 0 0 0 0 0 
0 0 0 0 0 0 0 0 0 
0 0 0 0 0 0 0 0 0 
0 0 0 0 0 0 0 0 0 
0 0 0 0 0 0 0 0 0 
0 0 0 0 0 0 0 0 0 
0 0 0 0 0 0 0 0 0 
0 0 0 0 0 0 0 0 0 
0 0 0 0 0 0 0 0 0 
0 0 0 0 0 0 0 0 0 
0 0 0 0 0 0 0 0 0 
0 0 0 0 0 0 0 0 0 
0 0 0 0 0 0 0 0 0 
0 0 0 0 0 0 0 0 0 
0 0 0 0 0 0 0 0 0 
0 0 0 0 0 0 0 0 0 
0 0 0 0 0 0 0 0 0 
0 0 0 0 0 0 0 0 0 
0 0 0 0 0 0 0 0 0 
0 0 0 0 0 0 0 0 0 
0 0 0 0 0 0 0 0 0 
0 0 0 0 0 0 0 0 0 
0 0 0 0 0 0 0 0 0 
0 0 0 0 0 0 0 0 0 
0 0 0 0 0 0 0 0 0 
0 0 0 0 0 0 0 0 0 
0 0 0 0 0 0 0 0 0 
0 0 0 0 0 0 0 0 0 
0 0 0 0 0 0 0 0 0 
0 0 0 0 0 0 0 0 0 
0 0 0 0 0 0 0 0 0 
0 0 0 0 0 0 0 0 0 
0 0 0 0 0 0 0 0 0 
0 0 0 0 0 0 0 0 0 
0 0 0 0 0 0 0 0 0 
0 0 0 0 0 0 0 0 0 
0 0 0 0 0 0 0 0 0 
0 0 0 0 0 0 0 0 0 
0 0 0 0 0 0 0 0 0 
0 0 0 0 0 0 0 0 0 
0 0 0 0 0 0 0 0 0 
0 0 0 0 0 0 0 0 0 
0 0 0 0 0 0 0 0 0 
0 0 0 0 0 0 0 0 0 
0 0 0 0 0 0 0 0 0 
0 0 0 0 0 0 0 0 0 
0 0 0 0 0 0 0 0 0 
0 0 0 0 0 0 0 0 0 
0 0 0 0 0 0 0 0 0 
0 0 0 0 0 0 0 0 0 
0 0 0 0 0 0 0 0 0 
0 0 0 0 0 0 0 0 0 
0 0 0 0 0 0 0 0 0 
0 0 0 0 0 0 0 0 0 
0 0 0 0 0 0 0 0 0 
0 0 0 0 0 0 0 0 0 
0 0 0 0 0 0 0 0 0 
0 0 0 0 0 0 0 0 0 
0 0 0 0 0 0 0 0 0 
0 0 0 0 0 0 0 0 0 
0 0 0 0 0 0 0 0 0 
0 0 0 0 0 0 0 0 0 
0 0 0 0 0 0 0 0 0 
0 0 0 0 0 0 0 0 0 
0 0 0 0 0 0 0 0 0 
0 0 0 0 0 0 0 0 0 
0 0 0 0 0 0 0 0 0 
0 0 0 0 0 0 0 0 0 
0 0 0 0 0 0 0 0 0 
0 0 0 0 0 0 0 0 0 
0 0 0 0 0 0 0 0 0 
0 0 0 0 0 0 0 0 0 
0 0 0 0 0 0 0 0 0 
0 0 0 0 0 0 0 0 0 
0 0 0 0 0 0 0 0 0 
0 0 0 0 0 0 0 0 0 
0 0 0 0 0 0 0 0 0 
0 0 0 0 0 0 0 0 0 
0 0 0 0 0 0 0 0 0 
0 0 0 0 0 0 0 0 0 
0 0 0 0 0 0 0 0 0 
0 0 0 0 0 0 0 0 0 
0 0 0 0 0 0 0 0 0 
0 0 0 0 0 0 0 0 0 
0 0 0 0 0 0 0 0 0 
0 0 0 0 0 0 0 0 0 
0 0 0 0 0 0 0 0 0 
0 0 0 0 0 0 0 0 0 
0 0 0 0 0 0 0 0 0 
0 0 0 0 0 0 0 0 0 
0 0 0 0 0 0 0 0 0 
0 0 0 0 0 0 0 0 0 
0 0 0 0 0 0 0 0 0 
0 0 0 0 0 0 0 0 0 
0 0 0 0 0 0 0 0 0 
0 0 0 0 0 0 0 0 0 
0 0 0 0 0 0 0 0 0 
0 0 0 0 0 0 0 0 0 
0 0 0 0 0 0 0 0 0 
0 0 0 0 0 0 0 0 0 
0 0 0 0 0 0 0 0 0 
0 0 0 0 0 0 0 0 0 
0 0 0 0 0 0 0 0 0 
0 0 0 0 0 0 0 0 0 
0 0 0 0 0 0 0 0 0 
0 0 0 0 0 0 0 0 0 
0 0 0 0 0 0 0 0 0 
0 0 0 0 0 0 0 0 0 
0 0 0 0 0 0 0 0 0 
0 0 0 0 0 0 0 0 0 
0 0 0 0 0 0 0 0 0 
0 0 0 0 0 0 0 0 0 
0 0 0 0 0 0 0 0 0 
0 0 0 0 0 0 0 0 0 
0 0 0 0 0 0 0 0 0 
0 0 0 0 0 0 0 0 0 
0 0 0 0 0 0 0 0 0 
0 0 0 0 0 0 0 0 0 
0 0 0 0 0 0 0 0 0 
0 0 0 0 0 0 0 0 0 
0 0 0 0 0 0 0 0 0 
0 0 0 0 0 0 0 0 0 
0 0 0 0 0 0 0 0 0 
0 0 0 0 0 0 0 0 0 
0 0 0 0 0 0 0 0 0 
0 0 0 0 0 0 0 0 0 
0 0 0 0 0 0 0 0 0 
0 0 0 0 0 0 0 0 0 
0 0 0 0 0 0 0 0 0 
0 0 0 0 0 0 0 0 0 
0 0 0 0 0 0 0 0 0 
0 0 0 0 0 0 0 0 0 
0 0 0 0 0 0 0 0 0 
0 0 0 0 0 0 0 0 0 
0 0 0 0 0 0 0 0 0 
0 0 0 0 0 0 0 0 0 
0 0 0 0 0 0 0 0 0 
0 0 0 0 0 0 0 0 0 
0 0 0 0 0 0 0 0 0 
0 0 0 0 0 0 0 0 0 
0 0 0 0 0 0 0 0 0 
0 0 0 0 0 0 0 0 0 
0 0 0 0 0 0 0 0 0 
0 0 0 0 0 0 0 0 0 
0 0 0 0 0 0 0 0 0 
0 0 0 0 0 0 0 0 0 
0 0 0 0 0 0 0 0 0 
0 0 0 0 0 0 0 0 0 
0 0 0 0 0 0 0 0 0 
0 0 0 0 0 0 0 0 0 
0 0 0 0 0 0 0 0 0 
0 0 0 0 0 0 0 0 0 
0 0 0 0 0 0 0 0 0 
0 0 0 0 0 0 0 0 0 
0 0 0 0 0 0 0 0 0 
0 0 0 0 0 0 0 0 0 
0 0 0 0 0 0 0 0 0 
0 0 0 0 0 0 0 0 0 
0 0 0 0 0 0 0 0 0 
0 0 0 0 0 0 0 0 0 
0 0 0 0 0 0 0 0 0 
0 0 0 0 0 0 0 0 0 
0 0 0 0 0 0 0 0 0 
0 0 0 0 0 0 0 0 0 
0 0 0 0 0 0 0 0 0 
0 0 0 0 0 0 0 0 0 
0 0 0 0 0 0 0 0 0 
0 0 0 0 0 0 0 0 0 
0 0 0 0 0 0 0 0 0 
0 0 0 0 0 0 0 0 0 
0 0 0 0 0 0 0 0 0 
0 0 0 0 0 0 0 0 0 
0 0 0 0 0 0 0 0 0 
0 0 0 0 0 0 0 0 0 
0 0 0 0 0 0 0 0 0 
0 0 0 0 0 0 0 0 0 
0 0 0 0 0 0 0 0 0 
0 0 0 0 0 0 0 0 0 
0 0 0 0 0 0 0 0 0 
0 0 0 0 0 0 0 0 0 
0 0 0 0 0 0 0 0 0 
0 0 0 0 0 0 0 0 0 
0 0 0 0 0 0 0 0 0 
0 0 0 0 0 0 0 0 0 
0 0 0 0 0 0 0 0 0 
0 0 0 0 0 0 0 0 0 
0 0 0 0 0 0 0 0 0 
0 0 0 0 0 0 0 0 0 
0 0 0 0 0 0 0 0 0 
0 0 0 0 0 0 0 0 0 
0 0 0 0 0 0 0 0 0 
0 0 0 0 0 0 0 0 0 
0 0 0 0 0 0 0 0 0 
0 0 0 0 0 0 0 0 0 
0 0 0 0 0 0 0 0 0 
0 0 0 0 0 0 0 0 0 
0 0 0 0 0 0 0 0 0 
0 0 0 0 0 0 0 0 0 
0 0 0 0 0 0 0 0 0 
0 0 0 0 0 0 0 0 0 
0 0 0 0 0 0 0 0 0 
0 0 0 0 0 0 0 0 0 
0 0 0 0 0 0 0 0 0 
0 0 0 0 0 0 0 0 0 
0 0 0 0 0 0 0 0 0 
0 0 0 0 0 0 0 0 0 
0 0 0 0 0 0 0 0 0 
0 0 0 0 0 0 0 0 0 
0 0 0 0 0 0 0 0 0 
0 0 0 0 0 0 0 0 0 
0 0 0 0 0 0 0 0 0 
0 0 0 0 0 0 0 0 0 
0 0 0 0 0 0 0 0 0 
0 0 0 0 0 0 0 0 0 
0 0 0 0 0 0 0 0 0 
0 0 0 0 0 0 0 0 0 
0 0 0 0 0 0 0 0 0 
0 0 0 0 0 0 0 0 0 
0 0 0 0 0 0 0 0 0 
0 0 0 0 0 0 0 0 0 
0 0 0 0 0 0 0 0 0 
0 0 0 0 0 0 0 0 0 
0 0 0 0 0 0 0 0 0 
0 0 0 0 0 0 0 0 0 
0 0 0 0 0 0 0 0 0 
0 0 0 0 0 0 0 0 0 
0 0 0 0 0 0 0 0 0 
0 0 0 0 0 0 0 0 0 
0 0 0 0 0 0 0 0 0 
0 0 0 0 0 0 0 0 0 
0 0 0 0 0 0 0 0 0 
0 0 0 0 0 0 0 0 0 
0 0 0 0 0 0 0 0 0 
0 0 0 0 0 0 0 0 0 
0 0 0 0 0 0 0 0 0 
0 0 0 0 0 0 0 0 0 
0 0 0 0 0 0 0 0 0 
0 0 0 0 0 0 0 0 0 
0 0 0 0 0 0 0 0 0 
0 0 0 0 0 0 0 0 0 
0 0 0 0 0 0 0 0 0 
0 0 0 0 0 0 0 0 0 
0 0 0 0 0 0 0 0 0 
0 0 0 0 0 0 0 0 0 
0 0 0 0 0 0 0 0 0 
0 0 0 0 0 0 0 0 0 
0 0 0 0 0 0 0 0 0 
0 0 0 0 0 0 0 0 0 
0 0 0 0 0 0 0 0 0 
0 0 0 0 0 0 0 0 0 
0 0 0 0 0 0 0 0 0 
0 0 0 0 0 0 0 0 0 
0 0 0 0 0 0 0 0 0 
0 0 0 0 0 0 0 0 0 
0 0 0 0 0 0 0 0 0 
0 0 0 0 0 0 0 0 0 
0 0 0 0 0 0 0 0 0 
0 0 0 0 0 0 0 0 0 
0 0 0 0 0 0 0 0 0 
0 0 0 0 0 0 0 0 0 
0 0 0 0 0 0 0 0 0 
0 0 0 0 0 0 0 0 0 
0 0 0 0 0 0 0 0 0 
0 0 0 0 0 0 0 0 0 
0 0 0 0 0 0 0 0 0 
0 0 0 0 0 0 0 0 0 
0 0 0 0 0 0 0 0 0 
0 0 0 0 0 0 0 0 0 
0 0 0 0 0 0 0 0 0 
0 0 0 0 0 0 0 0 0 
0 0 0 0 0 0 0 0 0 
0 0 0 0 0 0 0 0 0 
0 0 0 0 0 0 0 0 0 
0 0 0 0 0 0 0 0 0 
0 0 0 0 0 0 0 0 0 
0 0 0 0 0 0 0 0 0 
0 0 0 0 0 0 0 0 0 
0 0 0 0 0 0 0 0 0 
0 0 0 0 0 0 0 0 0 
0 0 0 0 0 0 0 0 0 
0 0 0 0 0 0 0 0 0 
0 0 0 0 0 0 0 0 0 
0 0 0 0 0 0 0 0 0 
0 0 0 0 0 0 0 0 0 
0 0 0 0 0 0 0 0 0 
0 0 0 0 0 0 0 0 0 
0 0 0 0 0 0 0 0 0 
0 0 0 0 0 0 0 0 0 
0 0 0 0 0 0 0 0 0 
0 0 0 0 0 0 0 0 0 
0 0 0 0 0 0 0 0 0 
0 0 0 0 0 0 0 0 0 
0 0 0 0 0 0 0 0 0 
0 0 0 0 0 0 0 0 0 
0 0 0 0 0 0 0 0 0 
0 0 0 0 0 0 0 0 0 
0 0 0 0 0 0 0 0 0 
0 0 0 0 0 0 0 0 0 
0 0 0 0 0 0 0 0 0 
0 0 0 0 0 0 0 0 0 
0 0 0 0 0 0 0 0 0 
0 0 0 0 0 0 0 0 0 
0 0 0 0 0 0 0 0 0 
0 0 0 0 0 0 0 0 0 
0 0 0 0 0 0 0 0 0 
0 0 0 0 0 0 0 0 0 
0 0 0 0 0 0 0 0 0 
0 0 0 0 0 0 0 0 0 
0 0 0 0 0 0 0 0 0 

