# vtk DataFile Version 3.0
Arquivo gerado por PZ
ASCII

DATASET UNSTRUCTURED_GRID
POINTS 1232 float
0.1 0 0
0.0974928 0.0222521 0
0.239454 0 0
0.23345 0.0532835 0
0.239454 0 0
0.23345 0.0532835 0
0.403312 0 0
0.393201 0.0897455 0
0.403312 0 0
0.393201 0.0897455 0
0.595846 0 0
0.580907 0.132588 0
0.595846 0 0
0.580907 0.132588 0
0.822073 0 0
0.801462 0.182928 0
0.822073 0 0
0.801462 0.182928 0
1.08789 0 0
1.06061 0.242078 0
1.08789 0 0
1.06061 0.242078 0
1.40022 0 0
1.36512 0.311579 0
1.40022 0 0
1.36512 0.311579 0
1.76722 0 0
1.72291 0.393243 0
1.76722 0 0
1.72291 0.393243 0
2.19844 0 0
2.14332 0.489198 0
2.19844 0 0
2.14332 0.489198 0
2.70512 0 0
2.63729 0.601945 0
2.70512 0 0
2.63729 0.601945 0
3.30046 0 0
3.21772 0.734422 0
3.30046 0 0
3.21772 0.734422 0
4 0 0
3.89971 0.890084 0
0.0974928 0.0222521 0
0.0900969 0.0433884 0
0.23345 0.0532835 0
0.215741 0.103895 0
0.23345 0.0532835 0
0.215741 0.103895 0
0.393201 0.0897455 0
0.363372 0.174991 0
0.393201 0.0897455 0
0.363372 0.174991 0
0.580907 0.132588 0
0.536839 0.258528 0
0.580907 0.132588 0
0.536839 0.258528 0
0.801462 0.182928 0
0.740662 0.356684 0
0.801462 0.182928 0
0.740662 0.356684 0
1.06061 0.242078 0
0.980155 0.472018 0
1.06061 0.242078 0
0.980155 0.472018 0
1.36512 0.311579 0
1.26156 0.607535 0
1.36512 0.311579 0
1.26156 0.607535 0
1.72291 0.393243 0
1.59221 0.766767 0
1.72291 0.393243 0
1.59221 0.766767 0
2.14332 0.489198 0
1.98072 0.953865 0
2.14332 0.489198 0
1.98072 0.953865 0
2.63729 0.601945 0
2.43722 1.17371 0
2.63729 0.601945 0
2.43722 1.17371 0
3.21772 0.734422 0
2.97362 1.43202 0
3.21772 0.734422 0
2.97362 1.43202 0
3.89971 0.890084 0
3.60388 1.73553 0
0.0900969 0.0433884 0
0.0781831 0.062349 0
0.215741 0.103895 0
0.187213 0.149297 0
0.215741 0.103895 0
0.187213 0.149297 0
0.363372 0.174991 0
0.315322 0.251461 0
0.363372 0.174991 0
0.315322 0.251461 0
0.536839 0.258528 0
0.465851 0.371504 0
0.536839 0.258528 0
0.465851 0.371504 0
0.740662 0.356684 0
0.642723 0.512554 0
0.740662 0.356684 0
0.642723 0.512554 0
0.980155 0.472018 0
0.850547 0.678288 0
0.980155 0.472018 0
0.850547 0.678288 0
1.26156 0.607535 0
1.09474 0.873026 0
1.26156 0.607535 0
1.09474 0.873026 0
1.59221 0.766767 0
1.38167 1.10184 0
1.59221 0.766767 0
1.38167 1.10184 0
1.98072 0.953865 0
1.71881 1.3707 0
1.98072 0.953865 0
1.71881 1.3707 0
2.43722 1.17371 0
2.11494 1.68661 0
2.43722 1.17371 0
2.11494 1.68661 0
2.97362 1.43202 0
2.58041 2.05781 0
2.97362 1.43202 0
2.58041 2.05781 0
3.60388 1.73553 0
3.12733 2.49396 0
0.0781831 0.062349 0
0.062349 0.0781831 0
0.187213 0.149297 0
0.149297 0.187213 0
0.187213 0.149297 0
0.149297 0.187213 0
0.315322 0.251461 0
0.251461 0.315322 0
0.315322 0.251461 0
0.251461 0.315322 0
0.465851 0.371504 0
0.371504 0.465851 0
0.465851 0.371504 0
0.371504 0.465851 0
0.642723 0.512554 0
0.512554 0.642723 0
0.642723 0.512554 0
0.512554 0.642723 0
0.850547 0.678288 0
0.678288 0.850547 0
0.850547 0.678288 0
0.678288 0.850547 0
1.09474 0.873026 0
0.873026 1.09474 0
1.09474 0.873026 0
0.873026 1.09474 0
1.38167 1.10184 0
1.10184 1.38167 0
1.38167 1.10184 0
1.10184 1.38167 0
1.71881 1.3707 0
1.3707 1.71881 0
1.71881 1.3707 0
1.3707 1.71881 0
2.11494 1.68661 0
1.68661 2.11494 0
2.11494 1.68661 0
1.68661 2.11494 0
2.58041 2.05781 0
2.05781 2.58041 0
2.58041 2.05781 0
2.05781 2.58041 0
3.12733 2.49396 0
2.49396 3.12733 0
0.062349 0.0781831 0
0.0433884 0.0900969 0
0.149297 0.187213 0
0.103895 0.215741 0
0.149297 0.187213 0
0.103895 0.215741 0
0.251461 0.315322 0
0.174991 0.363372 0
0.251461 0.315322 0
0.174991 0.363372 0
0.371504 0.465851 0
0.258528 0.536839 0
0.371504 0.465851 0
0.258528 0.536839 0
0.512554 0.642723 0
0.356684 0.740662 0
0.512554 0.642723 0
0.356684 0.740662 0
0.678288 0.850547 0
0.472018 0.980155 0
0.678288 0.850547 0
0.472018 0.980155 0
0.873026 1.09474 0
0.607535 1.26156 0
0.873026 1.09474 0
0.607535 1.26156 0
1.10184 1.38167 0
0.766767 1.59221 0
1.10184 1.38167 0
0.766767 1.59221 0
1.3707 1.71881 0
0.953865 1.98072 0
1.3707 1.71881 0
0.953865 1.98072 0
1.68661 2.11494 0
1.17371 2.43722 0
1.68661 2.11494 0
1.17371 2.43722 0
2.05781 2.58041 0
1.43202 2.97362 0
2.05781 2.58041 0
1.43202 2.97362 0
2.49396 3.12733 0
1.73553 3.60388 0
0.0433884 0.0900969 0
0.0222521 0.0974928 0
0.103895 0.215741 0
0.0532835 0.23345 0
0.103895 0.215741 0
0.0532835 0.23345 0
0.174991 0.363372 0
0.0897455 0.393201 0
0.174991 0.363372 0
0.0897455 0.393201 0
0.258528 0.536839 0
0.132588 0.580907 0
0.258528 0.536839 0
0.132588 0.580907 0
0.356684 0.740662 0
0.182928 0.801462 0
0.356684 0.740662 0
0.182928 0.801462 0
0.472018 0.980155 0
0.242078 1.06061 0
0.472018 0.980155 0
0.242078 1.06061 0
0.607535 1.26156 0
0.311579 1.36512 0
0.607535 1.26156 0
0.311579 1.36512 0
0.766767 1.59221 0
0.393243 1.72291 0
0.766767 1.59221 0
0.393243 1.72291 0
0.953865 1.98072 0
0.489198 2.14332 0
0.953865 1.98072 0
0.489198 2.14332 0
1.17371 2.43722 0
0.601945 2.63729 0
1.17371 2.43722 0
0.601945 2.63729 0
1.43202 2.97362 0
0.734422 3.21772 0
1.43202 2.97362 0
0.734422 3.21772 0
1.73553 3.60388 0
0.890084 3.89971 0
0.0222521 0.0974928 0
0 0.1 0
0.0532835 0.23345 0
0 0.239454 0
0.0532835 0.23345 0
0 0.239454 0
0.0897455 0.393201 0
0 0.403312 0
0.0897455 0.393201 0
0 0.403312 0
0.132588 0.580907 0
0 0.595846 0
0.132588 0.580907 0
0 0.595846 0
0.182928 0.801462 0
0 0.822073 0
0.182928 0.801462 0
0 0.822073 0
0.242078 1.06061 0
0 1.08789 0
0.242078 1.06061 0
0 1.08789 0
0.311579 1.36512 0
0 1.40022 0
0.311579 1.36512 0
0 1.40022 0
0.393243 1.72291 0
0 1.76722 0
0.393243 1.72291 0
0 1.76722 0
0.489198 2.14332 0
0 2.19844 0
0.489198 2.14332 0
0 2.19844 0
0.601945 2.63729 0
0 2.70512 0
0.601945 2.63729 0
0 2.70512 0
0.734422 3.21772 0
0 3.30046 0
0.734422 3.21772 0
0 3.30046 0
0.890084 3.89971 0
0 4 0
0 0.1 0
-0.0222521 0.0974928 0
0 0.239454 0
-0.0532835 0.23345 0
0 0.239454 0
-0.0532835 0.23345 0
0 0.403312 0
-0.0897455 0.393201 0
0 0.403312 0
-0.0897455 0.393201 0
0 0.595846 0
-0.132588 0.580907 0
0 0.595846 0
-0.132588 0.580907 0
0 0.822073 0
-0.182928 0.801462 0
0 0.822073 0
-0.182928 0.801462 0
0 1.08789 0
-0.242078 1.06061 0
0 1.08789 0
-0.242078 1.06061 0
0 1.40022 0
-0.311579 1.36512 0
0 1.40022 0
-0.311579 1.36512 0
0 1.76722 0
-0.393243 1.72291 0
0 1.76722 0
-0.393243 1.72291 0
0 2.19844 0
-0.489198 2.14332 0
0 2.19844 0
-0.489198 2.14332 0
0 2.70512 0
-0.601945 2.63729 0
0 2.70512 0
-0.601945 2.63729 0
0 3.30046 0
-0.734422 3.21772 0
0 3.30046 0
-0.734422 3.21772 0
0 4 0
-0.890084 3.89971 0
-0.0222521 0.0974928 0
-0.0433884 0.0900969 0
-0.0532835 0.23345 0
-0.103895 0.215741 0
-0.0532835 0.23345 0
-0.103895 0.215741 0
-0.0897455 0.393201 0
-0.174991 0.363372 0
-0.0897455 0.393201 0
-0.174991 0.363372 0
-0.132588 0.580907 0
-0.258528 0.536839 0
-0.132588 0.580907 0
-0.258528 0.536839 0
-0.182928 0.801462 0
-0.356684 0.740662 0
-0.182928 0.801462 0
-0.356684 0.740662 0
-0.242078 1.06061 0
-0.472018 0.980155 0
-0.242078 1.06061 0
-0.472018 0.980155 0
-0.311579 1.36512 0
-0.607535 1.26156 0
-0.311579 1.36512 0
-0.607535 1.26156 0
-0.393243 1.72291 0
-0.766767 1.59221 0
-0.393243 1.72291 0
-0.766767 1.59221 0
-0.489198 2.14332 0
-0.953865 1.98072 0
-0.489198 2.14332 0
-0.953865 1.98072 0
-0.601945 2.63729 0
-1.17371 2.43722 0
-0.601945 2.63729 0
-1.17371 2.43722 0
-0.734422 3.21772 0
-1.43202 2.97362 0
-0.734422 3.21772 0
-1.43202 2.97362 0
-0.890084 3.89971 0
-1.73553 3.60388 0
-0.0433884 0.0900969 0
-0.062349 0.0781831 0
-0.103895 0.215741 0
-0.149297 0.187213 0
-0.103895 0.215741 0
-0.149297 0.187213 0
-0.174991 0.363372 0
-0.251461 0.315322 0
-0.174991 0.363372 0
-0.251461 0.315322 0
-0.258528 0.536839 0
-0.371504 0.465851 0
-0.258528 0.536839 0
-0.371504 0.465851 0
-0.356684 0.740662 0
-0.512554 0.642723 0
-0.356684 0.740662 0
-0.512554 0.642723 0
-0.472018 0.980155 0
-0.678288 0.850547 0
-0.472018 0.980155 0
-0.678288 0.850547 0
-0.607535 1.26156 0
-0.873026 1.09474 0
-0.607535 1.26156 0
-0.873026 1.09474 0
-0.766767 1.59221 0
-1.10184 1.38167 0
-0.766767 1.59221 0
-1.10184 1.38167 0
-0.953865 1.98072 0
-1.3707 1.71881 0
-0.953865 1.98072 0
-1.3707 1.71881 0
-1.17371 2.43722 0
-1.68661 2.11494 0
-1.17371 2.43722 0
-1.68661 2.11494 0
-1.43202 2.97362 0
-2.05781 2.58041 0
-1.43202 2.97362 0
-2.05781 2.58041 0
-1.73553 3.60388 0
-2.49396 3.12733 0
-0.062349 0.0781831 0
-0.0781831 0.062349 0
-0.149297 0.187213 0
-0.187213 0.149297 0
-0.149297 0.187213 0
-0.187213 0.149297 0
-0.251461 0.315322 0
-0.315322 0.251461 0
-0.251461 0.315322 0
-0.315322 0.251461 0
-0.371504 0.465851 0
-0.465851 0.371504 0
-0.371504 0.465851 0
-0.465851 0.371504 0
-0.512554 0.642723 0
-0.642723 0.512554 0
-0.512554 0.642723 0
-0.642723 0.512554 0
-0.678288 0.850547 0
-0.850547 0.678288 0
-0.678288 0.850547 0
-0.850547 0.678288 0
-0.873026 1.09474 0
-1.09474 0.873026 0
-0.873026 1.09474 0
-1.09474 0.873026 0
-1.10184 1.38167 0
-1.38167 1.10184 0
-1.10184 1.38167 0
-1.38167 1.10184 0
-1.3707 1.71881 0
-1.71881 1.3707 0
-1.3707 1.71881 0
-1.71881 1.3707 0
-1.68661 2.11494 0
-2.11494 1.68661 0
-1.68661 2.11494 0
-2.11494 1.68661 0
-2.05781 2.58041 0
-2.58041 2.05781 0
-2.05781 2.58041 0
-2.58041 2.05781 0
-2.49396 3.12733 0
-3.12733 2.49396 0
-0.0781831 0.062349 0
-0.0900969 0.0433884 0
-0.187213 0.149297 0
-0.215741 0.103895 0
-0.187213 0.149297 0
-0.215741 0.103895 0
-0.315322 0.251461 0
-0.363372 0.174991 0
-0.315322 0.251461 0
-0.363372 0.174991 0
-0.465851 0.371504 0
-0.536839 0.258528 0
-0.465851 0.371504 0
-0.536839 0.258528 0
-0.642723 0.512554 0
-0.740662 0.356684 0
-0.642723 0.512554 0
-0.740662 0.356684 0
-0.850547 0.678288 0
-0.980155 0.472018 0
-0.850547 0.678288 0
-0.980155 0.472018 0
-1.09474 0.873026 0
-1.26156 0.607535 0
-1.09474 0.873026 0
-1.26156 0.607535 0
-1.38167 1.10184 0
-1.59221 0.766767 0
-1.38167 1.10184 0
-1.59221 0.766767 0
-1.71881 1.3707 0
-1.98072 0.953865 0
-1.71881 1.3707 0
-1.98072 0.953865 0
-2.11494 1.68661 0
-2.43722 1.17371 0
-2.11494 1.68661 0
-2.43722 1.17371 0
-2.58041 2.05781 0
-2.97362 1.43202 0
-2.58041 2.05781 0
-2.97362 1.43202 0
-3.12733 2.49396 0
-3.60388 1.73553 0
-0.0900969 0.0433884 0
-0.0974928 0.0222521 0
-0.215741 0.103895 0
-0.23345 0.0532835 0
-0.215741 0.103895 0
-0.23345 0.0532835 0
-0.363372 0.174991 0
-0.393201 0.0897455 0
-0.363372 0.174991 0
-0.393201 0.0897455 0
-0.536839 0.258528 0
-0.580907 0.132588 0
-0.536839 0.258528 0
-0.580907 0.132588 0
-0.740662 0.356684 0
-0.801462 0.182928 0
-0.740662 0.356684 0
-0.801462 0.182928 0
-0.980155 0.472018 0
-1.06061 0.242078 0
-0.980155 0.472018 0
-1.06061 0.242078 0
-1.26156 0.607535 0
-1.36512 0.311579 0
-1.26156 0.607535 0
-1.36512 0.311579 0
-1.59221 0.766767 0
-1.72291 0.393243 0
-1.59221 0.766767 0
-1.72291 0.393243 0
-1.98072 0.953865 0
-2.14332 0.489198 0
-1.98072 0.953865 0
-2.14332 0.489198 0
-2.43722 1.17371 0
-2.63729 0.601945 0
-2.43722 1.17371 0
-2.63729 0.601945 0
-2.97362 1.43202 0
-3.21772 0.734422 0
-2.97362 1.43202 0
-3.21772 0.734422 0
-3.60388 1.73553 0
-3.89971 0.890084 0
-0.0974928 0.0222521 0
-0.1 0 0
-0.23345 0.0532835 0
-0.239454 0 0
-0.23345 0.0532835 0
-0.239454 0 0
-0.393201 0.0897455 0
-0.403312 0 0
-0.393201 0.0897455 0
-0.403312 0 0
-0.580907 0.132588 0
-0.595846 0 0
-0.580907 0.132588 0
-0.595846 0 0
-0.801462 0.182928 0
-0.822073 0 0
-0.801462 0.182928 0
-0.822073 0 0
-1.06061 0.242078 0
-1.08789 0 0
-1.06061 0.242078 0
-1.08789 0 0
-1.36512 0.311579 0
-1.40022 0 0
-1.36512 0.311579 0
-1.40022 0 0
-1.72291 0.393243 0
-1.76722 0 0
-1.72291 0.393243 0
-1.76722 0 0
-2.14332 0.489198 0
-2.19844 0 0
-2.14332 0.489198 0
-2.19844 0 0
-2.63729 0.601945 0
-2.70512 0 0
-2.63729 0.601945 0
-2.70512 0 0
-3.21772 0.734422 0
-3.30046 0 0
-3.21772 0.734422 0
-3.30046 0 0
-3.89971 0.890084 0
-4 0 0
-0.1 0 0
-0.0974928 -0.0222521 0
-0.239454 0 0
-0.23345 -0.0532835 0
-0.239454 0 0
-0.23345 -0.0532835 0
-0.403312 0 0
-0.393201 -0.0897455 0
-0.403312 0 0
-0.393201 -0.0897455 0
-0.595846 0 0
-0.580907 -0.132588 0
-0.595846 0 0
-0.580907 -0.132588 0
-0.822073 0 0
-0.801462 -0.182928 0
-0.822073 0 0
-0.801462 -0.182928 0
-1.08789 0 0
-1.06061 -0.242078 0
-1.08789 0 0
-1.06061 -0.242078 0
-1.40022 0 0
-1.36512 -0.311579 0
-1.40022 0 0
-1.36512 -0.311579 0
-1.76722 0 0
-1.72291 -0.393243 0
-1.76722 0 0
-1.72291 -0.393243 0
-2.19844 0 0
-2.14332 -0.489198 0
-2.19844 0 0
-2.14332 -0.489198 0
-2.70512 0 0
-2.63729 -0.601945 0
-2.70512 0 0
-2.63729 -0.601945 0
-3.30046 0 0
-3.21772 -0.734422 0
-3.30046 0 0
-3.21772 -0.734422 0
-4 0 0
-3.89971 -0.890084 0
-0.0974928 -0.0222521 0
-0.0900969 -0.0433884 0
-0.23345 -0.0532835 0
-0.215741 -0.103895 0
-0.23345 -0.0532835 0
-0.215741 -0.103895 0
-0.393201 -0.0897455 0
-0.363372 -0.174991 0
-0.393201 -0.0897455 0
-0.363372 -0.174991 0
-0.580907 -0.132588 0
-0.536839 -0.258528 0
-0.580907 -0.132588 0
-0.536839 -0.258528 0
-0.801462 -0.182928 0
-0.740662 -0.356684 0
-0.801462 -0.182928 0
-0.740662 -0.356684 0
-1.06061 -0.242078 0
-0.980155 -0.472018 0
-1.06061 -0.242078 0
-0.980155 -0.472018 0
-1.36512 -0.311579 0
-1.26156 -0.607535 0
-1.36512 -0.311579 0
-1.26156 -0.607535 0
-1.72291 -0.393243 0
-1.59221 -0.766767 0
-1.72291 -0.393243 0
-1.59221 -0.766767 0
-2.14332 -0.489198 0
-1.98072 -0.953865 0
-2.14332 -0.489198 0
-1.98072 -0.953865 0
-2.63729 -0.601945 0
-2.43722 -1.17371 0
-2.63729 -0.601945 0
-2.43722 -1.17371 0
-3.21772 -0.734422 0
-2.97362 -1.43202 0
-3.21772 -0.734422 0
-2.97362 -1.43202 0
-3.89971 -0.890084 0
-3.60388 -1.73553 0
-0.0900969 -0.0433884 0
-0.0781831 -0.062349 0
-0.215741 -0.103895 0
-0.187213 -0.149297 0
-0.215741 -0.103895 0
-0.187213 -0.149297 0
-0.363372 -0.174991 0
-0.315322 -0.251461 0
-0.363372 -0.174991 0
-0.315322 -0.251461 0
-0.536839 -0.258528 0
-0.465851 -0.371504 0
-0.536839 -0.258528 0
-0.465851 -0.371504 0
-0.740662 -0.356684 0
-0.642723 -0.512554 0
-0.740662 -0.356684 0
-0.642723 -0.512554 0
-0.980155 -0.472018 0
-0.850547 -0.678288 0
-0.980155 -0.472018 0
-0.850547 -0.678288 0
-1.26156 -0.607535 0
-1.09474 -0.873026 0
-1.26156 -0.607535 0
-1.09474 -0.873026 0
-1.59221 -0.766767 0
-1.38167 -1.10184 0
-1.59221 -0.766767 0
-1.38167 -1.10184 0
-1.98072 -0.953865 0
-1.71881 -1.3707 0
-1.98072 -0.953865 0
-1.71881 -1.3707 0
-2.43722 -1.17371 0
-2.11494 -1.68661 0
-2.43722 -1.17371 0
-2.11494 -1.68661 0
-2.97362 -1.43202 0
-2.58041 -2.05781 0
-2.97362 -1.43202 0
-2.58041 -2.05781 0
-3.60388 -1.73553 0
-3.12733 -2.49396 0
-0.0781831 -0.062349 0
-0.062349 -0.0781831 0
-0.187213 -0.149297 0
-0.149297 -0.187213 0
-0.187213 -0.149297 0
-0.149297 -0.187213 0
-0.315322 -0.251461 0
-0.251461 -0.315322 0
-0.315322 -0.251461 0
-0.251461 -0.315322 0
-0.465851 -0.371504 0
-0.371504 -0.465851 0
-0.465851 -0.371504 0
-0.371504 -0.465851 0
-0.642723 -0.512554 0
-0.512554 -0.642723 0
-0.642723 -0.512554 0
-0.512554 -0.642723 0
-0.850547 -0.678288 0
-0.678288 -0.850547 0
-0.850547 -0.678288 0
-0.678288 -0.850547 0
-1.09474 -0.873026 0
-0.873026 -1.09474 0
-1.09474 -0.873026 0
-0.873026 -1.09474 0
-1.38167 -1.10184 0
-1.10184 -1.38167 0
-1.38167 -1.10184 0
-1.10184 -1.38167 0
-1.71881 -1.3707 0
-1.3707 -1.71881 0
-1.71881 -1.3707 0
-1.3707 -1.71881 0
-2.11494 -1.68661 0
-1.68661 -2.11494 0
-2.11494 -1.68661 0
-1.68661 -2.11494 0
-2.58041 -2.05781 0
-2.05781 -2.58041 0
-2.58041 -2.05781 0
-2.05781 -2.58041 0
-3.12733 -2.49396 0
-2.49396 -3.12733 0
-0.062349 -0.0781831 0
-0.0433884 -0.0900969 0
-0.149297 -0.187213 0
-0.103895 -0.215741 0
-0.149297 -0.187213 0
-0.103895 -0.215741 0
-0.251461 -0.315322 0
-0.174991 -0.363372 0
-0.251461 -0.315322 0
-0.174991 -0.363372 0
-0.371504 -0.465851 0
-0.258528 -0.536839 0
-0.371504 -0.465851 0
-0.258528 -0.536839 0
-0.512554 -0.642723 0
-0.356684 -0.740662 0
-0.512554 -0.642723 0
-0.356684 -0.740662 0
-0.678288 -0.850547 0
-0.472018 -0.980155 0
-0.678288 -0.850547 0
-0.472018 -0.980155 0
-0.873026 -1.09474 0
-0.607535 -1.26156 0
-0.873026 -1.09474 0
-0.607535 -1.26156 0
-1.10184 -1.38167 0
-0.766767 -1.59221 0
-1.10184 -1.38167 0
-0.766767 -1.59221 0
-1.3707 -1.71881 0
-0.953865 -1.98072 0
-1.3707 -1.71881 0
-0.953865 -1.98072 0
-1.68661 -2.11494 0
-1.17371 -2.43722 0
-1.68661 -2.11494 0
-1.17371 -2.43722 0
-2.05781 -2.58041 0
-1.43202 -2.97362 0
-2.05781 -2.58041 0
-1.43202 -2.97362 0
-2.49396 -3.12733 0
-1.73553 -3.60388 0
-0.0433884 -0.0900969 0
-0.0222521 -0.0974928 0
-0.103895 -0.215741 0
-0.0532835 -0.23345 0
-0.103895 -0.215741 0
-0.0532835 -0.23345 0
-0.174991 -0.363372 0
-0.0897455 -0.393201 0
-0.174991 -0.363372 0
-0.0897455 -0.393201 0
-0.258528 -0.536839 0
-0.132588 -0.580907 0
-0.258528 -0.536839 0
-0.132588 -0.580907 0
-0.356684 -0.740662 0
-0.182928 -0.801462 0
-0.356684 -0.740662 0
-0.182928 -0.801462 0
-0.472018 -0.980155 0
-0.242078 -1.06061 0
-0.472018 -0.980155 0
-0.242078 -1.06061 0
-0.607535 -1.26156 0
-0.311579 -1.36512 0
-0.607535 -1.26156 0
-0.311579 -1.36512 0
-0.766767 -1.59221 0
-0.393243 -1.72291 0
-0.766767 -1.59221 0
-0.393243 -1.72291 0
-0.953865 -1.98072 0
-0.489198 -2.14332 0
-0.953865 -1.98072 0
-0.489198 -2.14332 0
-1.17371 -2.43722 0
-0.601945 -2.63729 0
-1.17371 -2.43722 0
-0.601945 -2.63729 0
-1.43202 -2.97362 0
-0.734422 -3.21772 0
-1.43202 -2.97362 0
-0.734422 -3.21772 0
-1.73553 -3.60388 0
-0.890084 -3.89971 0
-0.0222521 -0.0974928 0
0 -0.1 0
-0.0532835 -0.23345 0
0 -0.239454 0
-0.0532835 -0.23345 0
0 -0.239454 0
-0.0897455 -0.393201 0
0 -0.403312 0
-0.0897455 -0.393201 0
0 -0.403312 0
-0.132588 -0.580907 0
0 -0.595846 0
-0.132588 -0.580907 0
0 -0.595846 0
-0.182928 -0.801462 0
0 -0.822073 0
-0.182928 -0.801462 0
0 -0.822073 0
-0.242078 -1.06061 0
0 -1.08789 0
-0.242078 -1.06061 0
0 -1.08789 0
-0.311579 -1.36512 0
0 -1.40022 0
-0.311579 -1.36512 0
0 -1.40022 0
-0.393243 -1.72291 0
0 -1.76722 0
-0.393243 -1.72291 0
0 -1.76722 0
-0.489198 -2.14332 0
0 -2.19844 0
-0.489198 -2.14332 0
0 -2.19844 0
-0.601945 -2.63729 0
0 -2.70512 0
-0.601945 -2.63729 0
0 -2.70512 0
-0.734422 -3.21772 0
0 -3.30046 0
-0.734422 -3.21772 0
0 -3.30046 0
-0.890084 -3.89971 0
0 -4 0
0 -0.1 0
0.0222521 -0.0974928 0
0 -0.239454 0
0.0532835 -0.23345 0
0 -0.239454 0
0.0532835 -0.23345 0
0 -0.403312 0
0.0897455 -0.393201 0
0 -0.403312 0
0.0897455 -0.393201 0
0 -0.595846 0
0.132588 -0.580907 0
0 -0.595846 0
0.132588 -0.580907 0
0 -0.822073 0
0.182928 -0.801462 0
0 -0.822073 0
0.182928 -0.801462 0
0 -1.08789 0
0.242078 -1.06061 0
0 -1.08789 0
0.242078 -1.06061 0
0 -1.40022 0
0.311579 -1.36512 0
0 -1.40022 0
0.311579 -1.36512 0
0 -1.76722 0
0.393243 -1.72291 0
0 -1.76722 0
0.393243 -1.72291 0
0 -2.19844 0
0.489198 -2.14332 0
0 -2.19844 0
0.489198 -2.14332 0
0 -2.70512 0
0.601945 -2.63729 0
0 -2.70512 0
0.601945 -2.63729 0
0 -3.30046 0
0.734422 -3.21772 0
0 -3.30046 0
0.734422 -3.21772 0
0 -4 0
0.890084 -3.89971 0
0.0222521 -0.0974928 0
0.0433884 -0.0900969 0
0.0532835 -0.23345 0
0.103895 -0.215741 0
0.0532835 -0.23345 0
0.103895 -0.215741 0
0.0897455 -0.393201 0
0.174991 -0.363372 0
0.0897455 -0.393201 0
0.174991 -0.363372 0
0.132588 -0.580907 0
0.258528 -0.536839 0
0.132588 -0.580907 0
0.258528 -0.536839 0
0.182928 -0.801462 0
0.356684 -0.740662 0
0.182928 -0.801462 0
0.356684 -0.740662 0
0.242078 -1.06061 0
0.472018 -0.980155 0
0.242078 -1.06061 0
0.472018 -0.980155 0
0.311579 -1.36512 0
0.607535 -1.26156 0
0.311579 -1.36512 0
0.607535 -1.26156 0
0.393243 -1.72291 0
0.766767 -1.59221 0
0.393243 -1.72291 0
0.766767 -1.59221 0
0.489198 -2.14332 0
0.953865 -1.98072 0
0.489198 -2.14332 0
0.953865 -1.98072 0
0.601945 -2.63729 0
1.17371 -2.43722 0
0.601945 -2.63729 0
1.17371 -2.43722 0
0.734422 -3.21772 0
1.43202 -2.97362 0
0.734422 -3.21772 0
1.43202 -2.97362 0
0.890084 -3.89971 0
1.73553 -3.60388 0
0.0433884 -0.0900969 0
0.062349 -0.0781831 0
0.103895 -0.215741 0
0.149297 -0.187213 0
0.103895 -0.215741 0
0.149297 -0.187213 0
0.174991 -0.363372 0
0.251461 -0.315322 0
0.174991 -0.363372 0
0.251461 -0.315322 0
0.258528 -0.536839 0
0.371504 -0.465851 0
0.258528 -0.536839 0
0.371504 -0.465851 0
0.356684 -0.740662 0
0.512554 -0.642723 0
0.356684 -0.740662 0
0.512554 -0.642723 0
0.472018 -0.980155 0
0.678288 -0.850547 0
0.472018 -0.980155 0
0.678288 -0.850547 0
0.607535 -1.26156 0
0.873026 -1.09474 0
0.607535 -1.26156 0
0.873026 -1.09474 0
0.766767 -1.59221 0
1.10184 -1.38167 0
0.766767 -1.59221 0
1.10184 -1.38167 0
0.953865 -1.98072 0
1.3707 -1.71881 0
0.953865 -1.98072 0
1.3707 -1.71881 0
1.17371 -2.43722 0
1.68661 -2.11494 0
1.17371 -2.43722 0
1.68661 -2.11494 0
1.43202 -2.97362 0
2.05781 -2.58041 0
1.43202 -2.97362 0
2.05781 -2.58041 0
1.73553 -3.60388 0
2.49396 -3.12733 0
0.062349 -0.0781831 0
0.0781831 -0.062349 0
0.149297 -0.187213 0
0.187213 -0.149297 0
0.149297 -0.187213 0
0.187213 -0.149297 0
0.251461 -0.315322 0
0.315322 -0.251461 0
0.251461 -0.315322 0
0.315322 -0.251461 0
0.371504 -0.465851 0
0.465851 -0.371504 0
0.371504 -0.465851 0
0.465851 -0.371504 0
0.512554 -0.642723 0
0.642723 -0.512554 0
0.512554 -0.642723 0
0.642723 -0.512554 0
0.678288 -0.850547 0
0.850547 -0.678288 0
0.678288 -0.850547 0
0.850547 -0.678288 0
0.873026 -1.09474 0
1.09474 -0.873026 0
0.873026 -1.09474 0
1.09474 -0.873026 0
1.10184 -1.38167 0
1.38167 -1.10184 0
1.10184 -1.38167 0
1.38167 -1.10184 0
1.3707 -1.71881 0
1.71881 -1.3707 0
1.3707 -1.71881 0
1.71881 -1.3707 0
1.68661 -2.11494 0
2.11494 -1.68661 0
1.68661 -2.11494 0
2.11494 -1.68661 0
2.05781 -2.58041 0
2.58041 -2.05781 0
2.05781 -2.58041 0
2.58041 -2.05781 0
2.49396 -3.12733 0
3.12733 -2.49396 0
0.0781831 -0.062349 0
0.0900969 -0.0433884 0
0.187213 -0.149297 0
0.215741 -0.103895 0
0.187213 -0.149297 0
0.215741 -0.103895 0
0.315322 -0.251461 0
0.363372 -0.174991 0
0.315322 -0.251461 0
0.363372 -0.174991 0
0.465851 -0.371504 0
0.536839 -0.258528 0
0.465851 -0.371504 0
0.536839 -0.258528 0
0.642723 -0.512554 0
0.740662 -0.356684 0
0.642723 -0.512554 0
0.740662 -0.356684 0
0.850547 -0.678288 0
0.980155 -0.472018 0
0.850547 -0.678288 0
0.980155 -0.472018 0
1.09474 -0.873026 0
1.26156 -0.607535 0
1.09474 -0.873026 0
1.26156 -0.607535 0
1.38167 -1.10184 0
1.59221 -0.766767 0
1.38167 -1.10184 0
1.59221 -0.766767 0
1.71881 -1.3707 0
1.98072 -0.953865 0
1.71881 -1.3707 0
1.98072 -0.953865 0
2.11494 -1.68661 0
2.43722 -1.17371 0
2.11494 -1.68661 0
2.43722 -1.17371 0
2.58041 -2.05781 0
2.97362 -1.43202 0
2.58041 -2.05781 0
2.97362 -1.43202 0
3.12733 -2.49396 0
3.60388 -1.73553 0
0.0900969 -0.0433884 0
0.0974928 -0.0222521 0
0.215741 -0.103895 0
0.23345 -0.0532835 0
0.215741 -0.103895 0
0.23345 -0.0532835 0
0.363372 -0.174991 0
0.393201 -0.0897455 0
0.363372 -0.174991 0
0.393201 -0.0897455 0
0.536839 -0.258528 0
0.580907 -0.132588 0
0.536839 -0.258528 0
0.580907 -0.132588 0
0.740662 -0.356684 0
0.801462 -0.182928 0
0.740662 -0.356684 0
0.801462 -0.182928 0
0.980155 -0.472018 0
1.06061 -0.242078 0
0.980155 -0.472018 0
1.06061 -0.242078 0
1.26156 -0.607535 0
1.36512 -0.311579 0
1.26156 -0.607535 0
1.36512 -0.311579 0
1.59221 -0.766767 0
1.72291 -0.393243 0
1.59221 -0.766767 0
1.72291 -0.393243 0
1.98072 -0.953865 0
2.14332 -0.489198 0
1.98072 -0.953865 0
2.14332 -0.489198 0
2.43722 -1.17371 0
2.63729 -0.601945 0
2.43722 -1.17371 0
2.63729 -0.601945 0
2.97362 -1.43202 0
3.21772 -0.734422 0
2.97362 -1.43202 0
3.21772 -0.734422 0
3.60388 -1.73553 0
3.89971 -0.890084 0
0.0974928 -0.0222521 0
0.1 0 0
0.23345 -0.0532835 0
0.239454 0 0
0.23345 -0.0532835 0
0.239454 0 0
0.393201 -0.0897455 0
0.403312 0 0
0.393201 -0.0897455 0
0.403312 0 0
0.580907 -0.132588 0
0.595846 0 0
0.580907 -0.132588 0
0.595846 0 0
0.801462 -0.182928 0
0.822073 0 0
0.801462 -0.182928 0
0.822073 0 0
1.06061 -0.242078 0
1.08789 0 0
1.06061 -0.242078 0
1.08789 0 0
1.36512 -0.311579 0
1.40022 0 0
1.36512 -0.311579 0
1.40022 0 0
1.72291 -0.393243 0
1.76722 0 0
1.72291 -0.393243 0
1.76722 0 0
2.14332 -0.489198 0
2.19844 0 0
2.14332 -0.489198 0
2.19844 0 0
2.63729 -0.601945 0
2.70512 0 0
2.63729 -0.601945 0
2.70512 0 0
3.21772 -0.734422 0
3.30046 0 0
3.21772 -0.734422 0
3.30046 0 0
3.89971 -0.890084 0
4 0 0

CELLS 308 1540
4 0 2 3 1
4 4 6 7 5
4 8 10 11 9
4 12 14 15 13
4 16 18 19 17
4 20 22 23 21
4 24 26 27 25
4 28 30 31 29
4 32 34 35 33
4 36 38 39 37
4 40 42 43 41
4 44 46 47 45
4 48 50 51 49
4 52 54 55 53
4 56 58 59 57
4 60 62 63 61
4 64 66 67 65
4 68 70 71 69
4 72 74 75 73
4 76 78 79 77
4 80 82 83 81
4 84 86 87 85
4 88 90 91 89
4 92 94 95 93
4 96 98 99 97
4 100 102 103 101
4 104 106 107 105
4 108 110 111 109
4 112 114 115 113
4 116 118 119 117
4 120 122 123 121
4 124 126 127 125
4 128 130 131 129
4 132 134 135 133
4 136 138 139 137
4 140 142 143 141
4 144 146 147 145
4 148 150 151 149
4 152 154 155 153
4 156 158 159 157
4 160 162 163 161
4 164 166 167 165
4 168 170 171 169
4 172 174 175 173
4 176 178 179 177
4 180 182 183 181
4 184 186 187 185
4 188 190 191 189
4 192 194 195 193
4 196 198 199 197
4 200 202 203 201
4 204 206 207 205
4 208 210 211 209
4 212 214 215 213
4 216 218 219 217
4 220 222 223 221
4 224 226 227 225
4 228 230 231 229
4 232 234 235 233
4 236 238 239 237
4 240 242 243 241
4 244 246 247 245
4 248 250 251 249
4 252 254 255 253
4 256 258 259 257
4 260 262 263 261
4 264 266 267 265
4 268 270 271 269
4 272 274 275 273
4 276 278 279 277
4 280 282 283 281
4 284 286 287 285
4 288 290 291 289
4 292 294 295 293
4 296 298 299 297
4 300 302 303 301
4 304 306 307 305
4 308 310 311 309
4 312 314 315 313
4 316 318 319 317
4 320 322 323 321
4 324 326 327 325
4 328 330 331 329
4 332 334 335 333
4 336 338 339 337
4 340 342 343 341
4 344 346 347 345
4 348 350 351 349
4 352 354 355 353
4 356 358 359 357
4 360 362 363 361
4 364 366 367 365
4 368 370 371 369
4 372 374 375 373
4 376 378 379 377
4 380 382 383 381
4 384 386 387 385
4 388 390 391 389
4 392 394 395 393
4 396 398 399 397
4 400 402 403 401
4 404 406 407 405
4 408 410 411 409
4 412 414 415 413
4 416 418 419 417
4 420 422 423 421
4 424 426 427 425
4 428 430 431 429
4 432 434 435 433
4 436 438 439 437
4 440 442 443 441
4 444 446 447 445
4 448 450 451 449
4 452 454 455 453
4 456 458 459 457
4 460 462 463 461
4 464 466 467 465
4 468 470 471 469
4 472 474 475 473
4 476 478 479 477
4 480 482 483 481
4 484 486 487 485
4 488 490 491 489
4 492 494 495 493
4 496 498 499 497
4 500 502 503 501
4 504 506 507 505
4 508 510 511 509
4 512 514 515 513
4 516 518 519 517
4 520 522 523 521
4 524 526 527 525
4 528 530 531 529
4 532 534 535 533
4 536 538 539 537
4 540 542 543 541
4 544 546 547 545
4 548 550 551 549
4 552 554 555 553
4 556 558 559 557
4 560 562 563 561
4 564 566 567 565
4 568 570 571 569
4 572 574 575 573
4 576 578 579 577
4 580 582 583 581
4 584 586 587 585
4 588 590 591 589
4 592 594 595 593
4 596 598 599 597
4 600 602 603 601
4 604 606 607 605
4 608 610 611 609
4 612 614 615 613
4 616 618 619 617
4 620 622 623 621
4 624 626 627 625
4 628 630 631 629
4 632 634 635 633
4 636 638 639 637
4 640 642 643 641
4 644 646 647 645
4 648 650 651 649
4 652 654 655 653
4 656 658 659 657
4 660 662 663 661
4 664 666 667 665
4 668 670 671 669
4 672 674 675 673
4 676 678 679 677
4 680 682 683 681
4 684 686 687 685
4 688 690 691 689
4 692 694 695 693
4 696 698 699 697
4 700 702 703 701
4 704 706 707 705
4 708 710 711 709
4 712 714 715 713
4 716 718 719 717
4 720 722 723 721
4 724 726 727 725
4 728 730 731 729
4 732 734 735 733
4 736 738 739 737
4 740 742 743 741
4 744 746 747 745
4 748 750 751 749
4 752 754 755 753
4 756 758 759 757
4 760 762 763 761
4 764 766 767 765
4 768 770 771 769
4 772 774 775 773
4 776 778 779 777
4 780 782 783 781
4 784 786 787 785
4 788 790 791 789
4 792 794 795 793
4 796 798 799 797
4 800 802 803 801
4 804 806 807 805
4 808 810 811 809
4 812 814 815 813
4 816 818 819 817
4 820 822 823 821
4 824 826 827 825
4 828 830 831 829
4 832 834 835 833
4 836 838 839 837
4 840 842 843 841
4 844 846 847 845
4 848 850 851 849
4 852 854 855 853
4 856 858 859 857
4 860 862 863 861
4 864 866 867 865
4 868 870 871 869
4 872 874 875 873
4 876 878 879 877
4 880 882 883 881
4 884 886 887 885
4 888 890 891 889
4 892 894 895 893
4 896 898 899 897
4 900 902 903 901
4 904 906 907 905
4 908 910 911 909
4 912 914 915 913
4 916 918 919 917
4 920 922 923 921
4 924 926 927 925
4 928 930 931 929
4 932 934 935 933
4 936 938 939 937
4 940 942 943 941
4 944 946 947 945
4 948 950 951 949
4 952 954 955 953
4 956 958 959 957
4 960 962 963 961
4 964 966 967 965
4 968 970 971 969
4 972 974 975 973
4 976 978 979 977
4 980 982 983 981
4 984 986 987 985
4 988 990 991 989
4 992 994 995 993
4 996 998 999 997
4 1000 1002 1003 1001
4 1004 1006 1007 1005
4 1008 1010 1011 1009
4 1012 1014 1015 1013
4 1016 1018 1019 1017
4 1020 1022 1023 1021
4 1024 1026 1027 1025
4 1028 1030 1031 1029
4 1032 1034 1035 1033
4 1036 1038 1039 1037
4 1040 1042 1043 1041
4 1044 1046 1047 1045
4 1048 1050 1051 1049
4 1052 1054 1055 1053
4 1056 1058 1059 1057
4 1060 1062 1063 1061
4 1064 1066 1067 1065
4 1068 1070 1071 1069
4 1072 1074 1075 1073
4 1076 1078 1079 1077
4 1080 1082 1083 1081
4 1084 1086 1087 1085
4 1088 1090 1091 1089
4 1092 1094 1095 1093
4 1096 1098 1099 1097
4 1100 1102 1103 1101
4 1104 1106 1107 1105
4 1108 1110 1111 1109
4 1112 1114 1115 1113
4 1116 1118 1119 1117
4 1120 1122 1123 1121
4 1124 1126 1127 1125
4 1128 1130 1131 1129
4 1132 1134 1135 1133
4 1136 1138 1139 1137
4 1140 1142 1143 1141
4 1144 1146 1147 1145
4 1148 1150 1151 1149
4 1152 1154 1155 1153
4 1156 1158 1159 1157
4 1160 1162 1163 1161
4 1164 1166 1167 1165
4 1168 1170 1171 1169
4 1172 1174 1175 1173
4 1176 1178 1179 1177
4 1180 1182 1183 1181
4 1184 1186 1187 1185
4 1188 1190 1191 1189
4 1192 1194 1195 1193
4 1196 1198 1199 1197
4 1200 1202 1203 1201
4 1204 1206 1207 1205
4 1208 1210 1211 1209
4 1212 1214 1215 1213
4 1216 1218 1219 1217
4 1220 1222 1223 1221
4 1224 1226 1227 1225
4 1228 1230 1231 1229

CELL_TYPES 308
9
9
9
9
9
9
9
9
9
9
9
9
9
9
9
9
9
9
9
9
9
9
9
9
9
9
9
9
9
9
9
9
9
9
9
9
9
9
9
9
9
9
9
9
9
9
9
9
9
9
9
9
9
9
9
9
9
9
9
9
9
9
9
9
9
9
9
9
9
9
9
9
9
9
9
9
9
9
9
9
9
9
9
9
9
9
9
9
9
9
9
9
9
9
9
9
9
9
9
9
9
9
9
9
9
9
9
9
9
9
9
9
9
9
9
9
9
9
9
9
9
9
9
9
9
9
9
9
9
9
9
9
9
9
9
9
9
9
9
9
9
9
9
9
9
9
9
9
9
9
9
9
9
9
9
9
9
9
9
9
9
9
9
9
9
9
9
9
9
9
9
9
9
9
9
9
9
9
9
9
9
9
9
9
9
9
9
9
9
9
9
9
9
9
9
9
9
9
9
9
9
9
9
9
9
9
9
9
9
9
9
9
9
9
9
9
9
9
9
9
9
9
9
9
9
9
9
9
9
9
9
9
9
9
9
9
9
9
9
9
9
9
9
9
9
9
9
9
9
9
9
9
9
9
9
9
9
9
9
9
9
9
9
9
9
9
9
9
9
9
9
9
9
9
9
9
9
9
9
9
9
9
9
9
9
9
9
9
9
9
9
9
9
9
9
9
9
9
9
9
9
9
9
9
9
9
9
9

POINT_DATA 1232
SCALARS FailureType float
LOOKUP_TABLE default
1 
1 
1 
1 
1 
1 
1 
1 
1 
1 
1 
1 
1 
1 
1 
1 
1 
1 
1 
1 
1 
1 
1 
1 
1 
1 
1 
1 
1 
1 
1 
1 
1 
1 
1 
1 
-0.366025 
-0.366025 
1.36603 
1.36603 
1 
1 
1 
1 
1 
1 
1 
1 
1 
1 
1 
1 
1 
1 
1 
1 
1 
1 
1 
1 
1 
1 
1 
1 
1 
1 
1 
1 
1 
1 
1 
1 
1 
1 
1 
1 
1 
1 
1 
1 
0.866025 
1.5 
1.5 
-0.866025 
1 
1 
1 
1 
1 
1 
1 
1 
1 
1 
1 
1 
1 
1 
1 
1 
1 
1 
1 
1 
1 
1 
1 
1 
1 
1 
1 
1 
1 
1 
1 
1 
1 
1 
1 
1 
1 
1 
1 
1 
1 
1 
1 
1 
1 
1 
1 
1 
1 
1 
1 
1 
1 
1 
1 
1 
1 
1 
1 
1 
1 
1 
1 
1 
1 
1 
1 
1 
1 
1 
1 
1 
1 
1 
1 
1 
1 
1 
1 
1 
1 
1 
1 
1 
1 
1 
1 
1 
1 
1 
1 
1 
1 
1 
1 
1 
1 
1 
1 
1 
1 
1 
1 
1 
1 
1 
1 
1 
1 
1 
1 
1 
1 
1 
1 
1 
1 
1 
1 
1 
1 
1 
1 
1 
1 
1 
1 
1 
1.36603 
1.36603 
-0.366025 
-0.366025 
1 
1 
1 
1 
1 
1 
1 
1 
1 
1 
1 
1 
1 
1 
1 
1 
1 
1 
1 
1 
1 
1 
1 
1 
1 
1 
1 
1 
1 
1 
1 
1 
1 
1 
1 
1 
1 
1 
1 
1 
1 
1 
1 
1 
1.36603 
-0.366025 
1.36603 
-0.366025 
1 
1 
1 
1 
1 
1 
1 
1 
1 
1 
1 
1 
1 
1 
1 
1 
1 
1 
1 
1 
1 
1 
1 
1 
1 
1 
1 
1 
1 
1 
1 
1 
1 
1 
1 
1 
1 
1 
1 
1 
1.5 
0.866025 
-0.866025 
1.5 
1 
1 
1 
1 
1 
1 
1 
1 
1 
1 
1 
1 
1 
1 
1 
1 
1 
1 
1 
1 
1 
1 
1 
1 
1 
1 
1 
1 
1 
1 
1 
1 
1 
1 
1 
1 
-0.366025 
-0.366025 
1.36603 
1.36603 
1 
1 
1 
1 
1 
1 
1 
1 
1 
1 
1 
1 
1 
1 
1 
1 
1 
1 
1 
1 
1 
1 
1 
1 
1 
1 
1 
1 
1 
1 
1 
1 
1 
1 
1 
1 
1 
1 
1 
1 
0.866025 
1.5 
1.5 
-0.866025 
1 
1 
1 
1 
1 
1 
1 
1 
1 
1 
1 
1 
1 
1 
1 
1 
1 
1 
1 
1 
1 
1 
1 
1 
1 
1 
1 
1 
1 
1 
1 
1 
1 
1 
1 
1 
1 
1 
1 
1 
1 
1 
1 
1 
1 
1 
1 
1 
1 
1 
1 
1 
1 
1 
1 
1 
1 
1 
1 
1 
1 
1 
1 
1 
1 
1 
1 
1 
1 
1 
1 
1 
1 
1 
1 
1 
1 
1 
1 
1 
1 
1 
1 
1 
1 
1 
1 
1 
1 
1 
1 
1 
1 
1 
1 
1 
1 
1 
1 
1 
1 
1 
1 
1 
1 
1 
1 
1 
1 
1 
1 
1 
1 
1 
1 
1 
1 
1 
1 
1 
1 
1 
1 
1 
1 
1 
1 
1 
0.866025 
1.5 
1.5 
-0.866025 
1 
1 
1 
1 
1 
1 
1 
1 
1 
1 
1 
1 
1 
1 
1 
1 
1 
1 
1 
1 
1 
1 
1 
1 
1 
1 
1 
1 
1 
1 
1 
1 
1 
1 
1 
1 
1 
1 
1 
1 
1 
1 
1 
1 
1.36603 
-0.366025 
1.36603 
-0.366025 
1 
1 
1 
1 
1 
1 
1 
1 
1 
1 
1 
1 
1 
1 
1 
1 
1 
1 
1 
1 
1 
1 
1 
1 
1 
1 
1 
1 
1 
1 
1 
1 
1 
1 
1 
1 
1 
1 
1 
1 
1.5 
0.866025 
-0.866025 
1.5 
1 
1 
1 
1 
1 
1 
1 
1 
1 
1 
1 
1 
1 
1 
1 
1 
1 
1 
1 
1 
1 
1 
1 
1 
1 
1 
1 
1 
1 
1 
1 
1 
1 
1 
1 
1 
1.5 
0.866025 
-0.866025 
1.5 
1 
1 
1 
1 
1 
1 
1 
1 
1 
1 
1 
1 
1 
1 
1 
1 
1 
1 
1 
1 
1 
1 
1 
1 
1 
1 
1 
1 
1 
1 
1 
1 
1 
1 
1 
1 
1 
1 
1 
1 
0.866025 
1.5 
1.5 
-0.866025 
1 
1 
1 
1 
1 
1 
1 
1 
1 
1 
1 
1 
1 
1 
1 
1 
1 
1 
1 
1 
1 
1 
1 
1 
1 
1 
1 
1 
1 
1 
1 
1 
1 
1 
1 
1 
1 
1 
1 
1 
1 
1 
1 
1 
1.5 
0.866025 
-0.866025 
1.5 
1 
1 
1 
1 
1 
1 
1 
1 
1 
1 
1 
1 
1 
1 
1 
1 
1 
1 
1 
1 
1 
1 
1 
1 
1 
1 
1 
1 
1 
1 
1 
1 
1 
1 
1 
1 
1 
1 
1 
1 
1 
1 
1 
1 
1 
1 
1 
1 
1 
1 
1 
1 
1 
1 
1 
1 
1 
1 
1 
1 
1 
1 
1 
1 
1 
1 
1 
1 
1 
1 
1 
1 
1 
1 
1 
1 
1 
1 
1 
1 
0.866025 
1.5 
1.5 
-0.866025 
1 
1 
1 
1 
1 
1 
1 
1 
1 
1 
1 
1 
1 
1 
1 
1 
1 
1 
1 
1 
1 
1 
1 
1 
1 
1 
1 
1 
1 
1 
1 
1 
1 
1 
1 
1 
1 
1 
1 
1 
1 
1 
1 
1 
1.36603 
-0.366025 
1.36603 
-0.366025 
1 
1 
1 
1 
1 
1 
1 
1 
1 
1 
1 
1 
1 
1 
1 
1 
1 
1 
1 
1 
1 
1 
1 
1 
1 
1 
1 
1 
1 
1 
1 
1 
1 
1 
1 
1 
1 
1 
1 
1 
1.5 
0.866025 
-0.866025 
1.5 
1 
1 
1 
1 
1 
1 
1 
1 
1 
1 
1 
1 
1 
1 
1 
1 
1 
1 
1 
1 
1 
1 
1 
1 
1 
1 
1 
1 
1 
1 
1 
1 
1 
1 
1 
1 
-0.366025 
1.36603 
-0.366025 
1.36603 
1 
1 
1 
1 
1 
1 
1 
1 
1 
1 
1 
1 
1 
1 
1 
1 
1 
1 
1 
1 
1 
1 
1 
1 
1 
1 
1 
1 
1 
1 
1 
1 
1 
1 
1 
1 
1 
1 
1 
1 
0.866025 
1.5 
1.5 
-0.866025 
1 
1 
1 
1 
1 
1 
1 
1 
1 
1 
1 
1 
1 
1 
1 
1 
1 
1 
1 
1 
1 
1 
1 
1 
1 
1 
1 
1 
1 
1 
1 
1 
1 
1 
1 
1 
1 
1 
1 
1 
1 
1 
1 
1 
1.5 
0.866025 
-0.866025 
1.5 
1 
1 
1 
1 
1 
1 
1 
1 
1 
1 
1 
1 
1 
1 
1 
1 
1 
1 
1 
1 
1 
1 
1 
1 
1 
1 
1 
1 
1 
1 
1 
1 
1 
1 
1 
1 
1 
1 
1 
1 
1 
1 
1 
1 
1 
1 
1 
1 
1 
1 
1 
1 
1 
1 
1 
1 
1 
1 
1 
1 
1 
1 
1 
1 
1 
1 
1 
1 
1 
1 
1 
1 
1 
1 
1 
1 
1 
1 
1 
1 
0.866025 
1.5 
1.5 
-0.866025 
1 
1 
1 
1 
1 
1 
1 
1 
1 
1 
1 
1 
1 
1 
1 
1 
1 
1 
1 
1 
1 
1 
1 
1 
1 
1 
1 
1 
1 
1 
1 
1 
1 
1 
1 
1 
1 
1 
1 
1 
1 
1 
1 
1 
1.36603 
-0.366025 
1.36603 
-0.366025 
1 
1 
1 
1 
1 
1 
1 
1 
1 
1 
1 
1 
1 
1 
1 
1 
1 
1 
1 
1 
1 
1 
1 
1 
1 
1 
1 
1 
1 
1 
1 
1 
1 
1 
1 
1 
1 
1 
1 
1 
1.5 
0.866025 
-0.866025 
1.5 

VECTORS Displacement float
0.00863629 6.89069e-14 0 
0.00841976 0.00192175 0 
0.00372759 -4.06984e-14 0 
0.00363413 0.000829466 0 
0.00372759 -4.06982e-14 0 
0.00363413 0.000829466 0 
0.00222971 2.46994e-14 0 
0.00217381 0.000496158 0 
0.00222971 2.46995e-14 0 
0.00217381 0.000496158 0 
0.00151298 1.50257e-14 0 
0.00147505 0.000336671 0 
0.00151298 1.50258e-14 0 
0.00147505 0.000336671 0 
0.00109727 2.07943e-16 0 
0.00106976 0.000244166 0 
0.00109727 2.07956e-16 0 
0.00106976 0.000244166 0 
0.00082866 -6.18993e-15 0 
0.000807884 0.000184394 0 
0.00082866 -6.18992e-15 0 
0.000807884 0.000184394 0 
0.00064271 -4.98081e-15 0 
0.000626596 0.000143016 0 
0.00064271 -4.98084e-15 0 
0.000626596 0.000143016 0 
0.000507689 -9.20488e-16 0 
0.00049496 0.000112971 0 
0.000507689 -9.20521e-16 0 
0.00049496 0.000112971 0 
0.000406152 3.18761e-15 0 
0.000395969 9.03773e-05 0 
0.000406152 3.18757e-15 0 
0.000395969 9.03773e-05 0 
0.000327703 5.98264e-15 0 
0.000319487 7.29208e-05 0 
0.000327703 5.9826e-15 0 
0.000319487 7.29208e-05 0 
0.000265752 6.94806e-15 0 
0.000259089 5.91353e-05 0 
0.000265752 6.94805e-15 0 
0.000259089 5.91353e-05 0 
0.000215907 -1.52466e-20 0 
0.000210494 4.80439e-05 0 
0.00841976 0.00192175 0 
0.00778103 0.00374714 0 
0.00363413 0.000829466 0 
0.00335844 0.00161734 0 
0.00363413 0.000829466 0 
0.00335844 0.00161734 0 
0.00217381 0.000496158 0 
0.0020089 0.000967437 0 
0.00217381 0.000496158 0 
0.0020089 0.000967437 0 
0.00147505 0.000336671 0 
0.00136315 0.000656459 0 
0.00147505 0.000336671 0 
0.00136315 0.000656459 0 
0.00106976 0.000244166 0 
0.000988606 0.000476088 0 
0.00106976 0.000244166 0 
0.000988606 0.000476088 0 
0.000807884 0.000184394 0 
0.000746597 0.000359542 0 
0.000807884 0.000184394 0 
0.000746597 0.000359542 0 
0.000626596 0.000143016 0 
0.000579062 0.000278861 0 
0.000626596 0.000143016 0 
0.000579062 0.000278861 0 
0.00049496 0.000112971 0 
0.000457412 0.000220278 0 
0.00049496 0.000112971 0 
0.000457412 0.000220278 0 
0.000395969 9.03773e-05 0 
0.00036593 0.000176223 0 
0.000395969 9.03773e-05 0 
0.00036593 0.000176223 0 
0.000319487 7.29208e-05 0 
0.00029525 0.000142185 0 
0.000319487 7.29208e-05 0 
0.00029525 0.000142185 0 
0.000259089 5.91353e-05 0 
0.000239434 0.000115305 0 
0.000259089 5.91353e-05 0 
0.000239434 0.000115305 0 
0.000210494 4.80439e-05 0 
0.000194526 9.36786e-05 0 
0.00778103 0.00374714 0 
0.00675212 0.00538464 0 
0.00335844 0.00161734 0 
0.00291434 0.00232411 0 
0.00335844 0.00161734 0 
0.00291434 0.00232411 0 
0.0020089 0.000967437 0 
0.00174326 0.0013902 0 
0.0020089 0.000967437 0 
0.00174326 0.0013902 0 
0.00136315 0.000656459 0 
0.0011829 0.00094333 0 
0.00136315 0.000656459 0 
0.0011829 0.00094333 0 
0.000988606 0.000476088 0 
0.00085788 0.000684137 0 
0.000988606 0.000476088 0 
0.00085788 0.000684137 0 
0.000746597 0.000359542 0 
0.000647873 0.000516661 0 
0.000746597 0.000359542 0 
0.000647873 0.000516661 0 
0.000579062 0.000278861 0 
0.000502491 0.000400723 0 
0.000579062 0.000278861 0 
0.000502491 0.000400723 0 
0.000457412 0.000220278 0 
0.000396927 0.000316539 0 
0.000457412 0.000220278 0 
0.000396927 0.000316539 0 
0.00036593 0.000176223 0 
0.000317542 0.000253232 0 
0.00036593 0.000176223 0 
0.000317542 0.000253232 0 
0.00029525 0.000142185 0 
0.000256209 0.00020432 0 
0.00029525 0.000142185 0 
0.000256209 0.00020432 0 
0.000239434 0.000115305 0 
0.000207773 0.000165694 0 
0.000239434 0.000115305 0 
0.000207773 0.000165694 0 
0.000194526 9.36786e-05 0 
0.000168803 0.000134616 0 
0.00675212 0.00538464 0 
0.00538464 0.00675212 0 
0.00291434 0.00232411 0 
0.00232411 0.00291434 0 
0.00291434 0.00232411 0 
0.00232411 0.00291434 0 
0.00174326 0.0013902 0 
0.0013902 0.00174326 0 
0.00174326 0.0013902 0 
0.0013902 0.00174326 0 
0.0011829 0.00094333 0 
0.00094333 0.0011829 0 
0.0011829 0.00094333 0 
0.00094333 0.0011829 0 
0.00085788 0.000684137 0 
0.000684137 0.00085788 0 
0.00085788 0.000684137 0 
0.000684137 0.00085788 0 
0.000647873 0.000516661 0 
0.000516661 0.000647873 0 
0.000647873 0.000516661 0 
0.000516661 0.000647873 0 
0.000502491 0.000400723 0 
0.000400723 0.000502491 0 
0.000502491 0.000400723 0 
0.000400723 0.000502491 0 
0.000396927 0.000316539 0 
0.000316539 0.000396927 0 
0.000396927 0.000316539 0 
0.000316539 0.000396927 0 
0.000317542 0.000253232 0 
0.000253232 0.000317542 0 
0.000317542 0.000253232 0 
0.000253232 0.000317542 0 
0.000256209 0.00020432 0 
0.00020432 0.000256209 0 
0.000256209 0.00020432 0 
0.00020432 0.000256209 0 
0.000207773 0.000165694 0 
0.000165694 0.000207773 0 
0.000207773 0.000165694 0 
0.000165694 0.000207773 0 
0.000168803 0.000134616 0 
0.000134616 0.000168803 0 
0.00538464 0.00675212 0 
0.00374714 0.00778103 0 
0.00232411 0.00291434 0 
0.00161734 0.00335844 0 
0.00232411 0.00291434 0 
0.00161734 0.00335844 0 
0.0013902 0.00174326 0 
0.000967437 0.0020089 0 
0.0013902 0.00174326 0 
0.000967437 0.0020089 0 
0.00094333 0.0011829 0 
0.000656459 0.00136315 0 
0.00094333 0.0011829 0 
0.000656459 0.00136315 0 
0.000684137 0.00085788 0 
0.000476088 0.000988606 0 
0.000684137 0.00085788 0 
0.000476088 0.000988606 0 
0.000516661 0.000647873 0 
0.000359542 0.000746597 0 
0.000516661 0.000647873 0 
0.000359542 0.000746597 0 
0.000400723 0.000502491 0 
0.000278861 0.000579062 0 
0.000400723 0.000502491 0 
0.000278861 0.000579062 0 
0.000316539 0.000396927 0 
0.000220278 0.000457412 0 
0.000316539 0.000396927 0 
0.000220278 0.000457412 0 
0.000253232 0.000317542 0 
0.000176223 0.00036593 0 
0.000253232 0.000317542 0 
0.000176223 0.00036593 0 
0.00020432 0.000256209 0 
0.000142185 0.00029525 0 
0.00020432 0.000256209 0 
0.000142185 0.00029525 0 
0.000165694 0.000207773 0 
0.000115305 0.000239434 0 
0.000165694 0.000207773 0 
0.000115305 0.000239434 0 
0.000134616 0.000168803 0 
9.36786e-05 0.000194526 0 
0.00374714 0.00778103 0 
0.00192175 0.00841976 0 
0.00161734 0.00335844 0 
0.000829466 0.00363413 0 
0.00161734 0.00335844 0 
0.000829466 0.00363413 0 
0.000967437 0.0020089 0 
0.000496158 0.00217381 0 
0.000967437 0.0020089 0 
0.000496158 0.00217381 0 
0.000656459 0.00136315 0 
0.000336671 0.00147505 0 
0.000656459 0.00136315 0 
0.000336671 0.00147505 0 
0.000476088 0.000988606 0 
0.000244166 0.00106976 0 
0.000476088 0.000988606 0 
0.000244166 0.00106976 0 
0.000359542 0.000746597 0 
0.000184394 0.000807884 0 
0.000359542 0.000746597 0 
0.000184394 0.000807884 0 
0.000278861 0.000579062 0 
0.000143016 0.000626596 0 
0.000278861 0.000579062 0 
0.000143016 0.000626596 0 
0.000220278 0.000457412 0 
0.000112971 0.00049496 0 
0.000220278 0.000457412 0 
0.000112971 0.00049496 0 
0.000176223 0.00036593 0 
9.03773e-05 0.000395969 0 
0.000176223 0.00036593 0 
9.03773e-05 0.000395969 0 
0.000142185 0.00029525 0 
7.29208e-05 0.000319487 0 
0.000142185 0.00029525 0 
7.29208e-05 0.000319487 0 
0.000115305 0.000239434 0 
5.91353e-05 0.000259089 0 
0.000115305 0.000239434 0 
5.91353e-05 0.000259089 0 
9.36786e-05 0.000194526 0 
4.80439e-05 0.000210494 0 
0.00192175 0.00841976 0 
-6.93568e-14 0.00863629 0 
0.000829466 0.00363413 0 
4.03256e-14 0.00372759 0 
0.000829466 0.00363413 0 
4.03254e-14 0.00372759 0 
0.000496158 0.00217381 0 
-2.50139e-14 0.00222971 0 
0.000496158 0.00217381 0 
-2.50139e-14 0.00222971 0 
0.000336671 0.00147505 0 
-1.52954e-14 0.00151298 0 
0.000336671 0.00147505 0 
-1.52954e-14 0.00151298 0 
0.000244166 0.00106976 0 
-4.40105e-16 0.00109727 0 
0.000244166 0.00106976 0 
-4.40159e-16 0.00109727 0 
0.000184394 0.000807884 0 
5.99098e-15 0.00082866 0 
0.000184394 0.000807884 0 
5.99091e-15 0.00082866 0 
0.000143016 0.000626596 0 
4.81355e-15 0.00064271 0 
0.000143016 0.000626596 0 
4.81361e-15 0.00064271 0 
0.000112971 0.00049496 0 
7.84935e-16 0.000507689 0 
0.000112971 0.00049496 0 
7.85017e-16 0.000507689 0 
9.03773e-05 0.000395969 0 
-3.29123e-15 0.000406152 0 
9.03773e-05 0.000395969 0 
-3.29122e-15 0.000406152 0 
7.29208e-05 0.000319487 0 
-6.05309e-15 0.000327703 0 
7.29208e-05 0.000319487 0 
-6.05309e-15 0.000327703 0 
5.91353e-05 0.000259089 0 
-6.98283e-15 0.000265752 0 
5.91353e-05 0.000259089 0 
-6.98284e-15 0.000265752 0 
4.80439e-05 0.000210494 0 
0 0.000215907 0 
-6.93571e-14 0.00863629 0 
-0.00192175 0.00841976 0 
4.03253e-14 0.00372759 0 
-0.000829466 0.00363413 0 
4.03254e-14 0.00372759 0 
-0.000829466 0.00363413 0 
-2.50139e-14 0.00222971 0 
-0.000496158 0.00217381 0 
-2.50139e-14 0.00222971 0 
-0.000496158 0.00217381 0 
-1.52954e-14 0.00151298 0 
-0.000336671 0.00147505 0 
-1.52954e-14 0.00151298 0 
-0.000336671 0.00147505 0 
-4.402e-16 0.00109727 0 
-0.000244166 0.00106976 0 
-4.40174e-16 0.00109727 0 
-0.000244166 0.00106976 0 
5.99098e-15 0.00082866 0 
-0.000184394 0.000807884 0 
5.99092e-15 0.00082866 0 
-0.000184394 0.000807884 0 
4.8135e-15 0.00064271 0 
-0.000143016 0.000626596 0 
4.81354e-15 0.00064271 0 
-0.000143016 0.000626596 0 
7.84986e-16 0.000507689 0 
-0.000112971 0.00049496 0 
7.84986e-16 0.000507689 0 
-0.000112971 0.00049496 0 
-3.29122e-15 0.000406152 0 
-9.03773e-05 0.000395969 0 
-3.29123e-15 0.000406152 0 
-9.03773e-05 0.000395969 0 
-6.05308e-15 0.000327703 0 
-7.29208e-05 0.000319487 0 
-6.05308e-15 0.000327703 0 
-7.29208e-05 0.000319487 0 
-6.98285e-15 0.000265752 0 
-5.91353e-05 0.000259089 0 
-6.98283e-15 0.000265752 0 
-5.91353e-05 0.000259089 0 
0 0.000215907 0 
-4.80439e-05 0.000210494 0 
-0.00192175 0.00841976 0 
-0.00374714 0.00778103 0 
-0.000829466 0.00363413 0 
-0.00161734 0.00335844 0 
-0.000829466 0.00363413 0 
-0.00161734 0.00335844 0 
-0.000496158 0.00217381 0 
-0.000967437 0.0020089 0 
-0.000496158 0.00217381 0 
-0.000967437 0.0020089 0 
-0.000336671 0.00147505 0 
-0.000656459 0.00136315 0 
-0.000336671 0.00147505 0 
-0.000656459 0.00136315 0 
-0.000244166 0.00106976 0 
-0.000476088 0.000988606 0 
-0.000244166 0.00106976 0 
-0.000476088 0.000988606 0 
-0.000184394 0.000807884 0 
-0.000359542 0.000746597 0 
-0.000184394 0.000807884 0 
-0.000359542 0.000746597 0 
-0.000143016 0.000626596 0 
-0.000278861 0.000579062 0 
-0.000143016 0.000626596 0 
-0.000278861 0.000579062 0 
-0.000112971 0.00049496 0 
-0.000220278 0.000457412 0 
-0.000112971 0.00049496 0 
-0.000220278 0.000457412 0 
-9.03773e-05 0.000395969 0 
-0.000176223 0.00036593 0 
-9.03773e-05 0.000395969 0 
-0.000176223 0.00036593 0 
-7.29208e-05 0.000319487 0 
-0.000142185 0.00029525 0 
-7.29208e-05 0.000319487 0 
-0.000142185 0.00029525 0 
-5.91353e-05 0.000259089 0 
-0.000115305 0.000239434 0 
-5.91353e-05 0.000259089 0 
-0.000115305 0.000239434 0 
-4.80439e-05 0.000210494 0 
-9.36786e-05 0.000194526 0 
-0.00374714 0.00778103 0 
-0.00538464 0.00675212 0 
-0.00161734 0.00335844 0 
-0.00232411 0.00291434 0 
-0.00161734 0.00335844 0 
-0.00232411 0.00291434 0 
-0.000967437 0.0020089 0 
-0.0013902 0.00174326 0 
-0.000967437 0.0020089 0 
-0.0013902 0.00174326 0 
-0.000656459 0.00136315 0 
-0.00094333 0.0011829 0 
-0.000656459 0.00136315 0 
-0.00094333 0.0011829 0 
-0.000476088 0.000988606 0 
-0.000684137 0.00085788 0 
-0.000476088 0.000988606 0 
-0.000684137 0.00085788 0 
-0.000359542 0.000746597 0 
-0.000516661 0.000647873 0 
-0.000359542 0.000746597 0 
-0.000516661 0.000647873 0 
-0.000278861 0.000579062 0 
-0.000400723 0.000502491 0 
-0.000278861 0.000579062 0 
-0.000400723 0.000502491 0 
-0.000220278 0.000457412 0 
-0.000316539 0.000396927 0 
-0.000220278 0.000457412 0 
-0.000316539 0.000396927 0 
-0.000176223 0.00036593 0 
-0.000253232 0.000317542 0 
-0.000176223 0.00036593 0 
-0.000253232 0.000317542 0 
-0.000142185 0.00029525 0 
-0.00020432 0.000256209 0 
-0.000142185 0.00029525 0 
-0.00020432 0.000256209 0 
-0.000115305 0.000239434 0 
-0.000165694 0.000207773 0 
-0.000115305 0.000239434 0 
-0.000165694 0.000207773 0 
-9.36786e-05 0.000194526 0 
-0.000134616 0.000168803 0 
-0.00538464 0.00675212 0 
-0.00675212 0.00538464 0 
-0.00232411 0.00291434 0 
-0.00291434 0.00232411 0 
-0.00232411 0.00291434 0 
-0.00291434 0.00232411 0 
-0.0013902 0.00174326 0 
-0.00174326 0.0013902 0 
-0.0013902 0.00174326 0 
-0.00174326 0.0013902 0 
-0.00094333 0.0011829 0 
-0.0011829 0.00094333 0 
-0.00094333 0.0011829 0 
-0.0011829 0.00094333 0 
-0.000684137 0.00085788 0 
-0.00085788 0.000684137 0 
-0.000684137 0.00085788 0 
-0.00085788 0.000684137 0 
-0.000516661 0.000647873 0 
-0.000647873 0.000516661 0 
-0.000516661 0.000647873 0 
-0.000647873 0.000516661 0 
-0.000400723 0.000502491 0 
-0.000502491 0.000400723 0 
-0.000400723 0.000502491 0 
-0.000502491 0.000400723 0 
-0.000316539 0.000396927 0 
-0.000396927 0.000316539 0 
-0.000316539 0.000396927 0 
-0.000396927 0.000316539 0 
-0.000253232 0.000317542 0 
-0.000317542 0.000253232 0 
-0.000253232 0.000317542 0 
-0.000317542 0.000253232 0 
-0.00020432 0.000256209 0 
-0.000256209 0.00020432 0 
-0.00020432 0.000256209 0 
-0.000256209 0.00020432 0 
-0.000165694 0.000207773 0 
-0.000207773 0.000165694 0 
-0.000165694 0.000207773 0 
-0.000207773 0.000165694 0 
-0.000134616 0.000168803 0 
-0.000168803 0.000134616 0 
-0.00675212 0.00538464 0 
-0.00778103 0.00374714 0 
-0.00291434 0.00232411 0 
-0.00335844 0.00161734 0 
-0.00291434 0.00232411 0 
-0.00335844 0.00161734 0 
-0.00174326 0.0013902 0 
-0.0020089 0.000967437 0 
-0.00174326 0.0013902 0 
-0.0020089 0.000967437 0 
-0.0011829 0.00094333 0 
-0.00136315 0.000656459 0 
-0.0011829 0.00094333 0 
-0.00136315 0.000656459 0 
-0.00085788 0.000684137 0 
-0.000988606 0.000476088 0 
-0.00085788 0.000684137 0 
-0.000988606 0.000476088 0 
-0.000647873 0.000516661 0 
-0.000746597 0.000359542 0 
-0.000647873 0.000516661 0 
-0.000746597 0.000359542 0 
-0.000502491 0.000400723 0 
-0.000579062 0.000278861 0 
-0.000502491 0.000400723 0 
-0.000579062 0.000278861 0 
-0.000396927 0.000316539 0 
-0.000457412 0.000220278 0 
-0.000396927 0.000316539 0 
-0.000457412 0.000220278 0 
-0.000317542 0.000253232 0 
-0.00036593 0.000176223 0 
-0.000317542 0.000253232 0 
-0.00036593 0.000176223 0 
-0.000256209 0.00020432 0 
-0.00029525 0.000142185 0 
-0.000256209 0.00020432 0 
-0.00029525 0.000142185 0 
-0.000207773 0.000165694 0 
-0.000239434 0.000115305 0 
-0.000207773 0.000165694 0 
-0.000239434 0.000115305 0 
-0.000168803 0.000134616 0 
-0.000194526 9.36786e-05 0 
-0.00778103 0.00374714 0 
-0.00841976 0.00192175 0 
-0.00335844 0.00161734 0 
-0.00363413 0.000829466 0 
-0.00335844 0.00161734 0 
-0.00363413 0.000829466 0 
-0.0020089 0.000967437 0 
-0.00217381 0.000496158 0 
-0.0020089 0.000967437 0 
-0.00217381 0.000496158 0 
-0.00136315 0.000656459 0 
-0.00147505 0.000336671 0 
-0.00136315 0.000656459 0 
-0.00147505 0.000336671 0 
-0.000988606 0.000476088 0 
-0.00106976 0.000244166 0 
-0.000988606 0.000476088 0 
-0.00106976 0.000244166 0 
-0.000746597 0.000359542 0 
-0.000807884 0.000184394 0 
-0.000746597 0.000359542 0 
-0.000807884 0.000184394 0 
-0.000579062 0.000278861 0 
-0.000626596 0.000143016 0 
-0.000579062 0.000278861 0 
-0.000626596 0.000143016 0 
-0.000457412 0.000220278 0 
-0.00049496 0.000112971 0 
-0.000457412 0.000220278 0 
-0.00049496 0.000112971 0 
-0.00036593 0.000176223 0 
-0.000395969 9.03773e-05 0 
-0.00036593 0.000176223 0 
-0.000395969 9.03773e-05 0 
-0.00029525 0.000142185 0 
-0.000319487 7.29208e-05 0 
-0.00029525 0.000142185 0 
-0.000319487 7.29208e-05 0 
-0.000239434 0.000115305 0 
-0.000259089 5.91353e-05 0 
-0.000239434 0.000115305 0 
-0.000259089 5.91353e-05 0 
-0.000194526 9.36786e-05 0 
-0.000210494 4.80439e-05 0 
-0.00841976 0.00192175 0 
-0.00863629 -7.03113e-14 0 
-0.00363413 0.000829466 0 
-0.00372759 3.95218e-14 0 
-0.00363413 0.000829466 0 
-0.00372759 3.95216e-14 0 
-0.00217381 0.000496158 0 
-0.00222971 -2.57024e-14 0 
-0.00217381 0.000496158 0 
-0.00222971 -2.57024e-14 0 
-0.00147505 0.000336671 0 
-0.00151298 -1.58877e-14 0 
-0.00147505 0.000336671 0 
-0.00151298 -1.58877e-14 0 
-0.00106976 0.000244166 0 
-0.00109727 -9.49056e-16 0 
-0.00106976 0.000244166 0 
-0.00109727 -9.49002e-16 0 
-0.000807884 0.000184394 0 
-0.00082866 5.558e-15 0 
-0.000807884 0.000184394 0 
-0.00082866 5.55796e-15 0 
-0.000626596 0.000143016 0 
-0.00064271 4.45207e-15 0 
-0.000626596 0.000143016 0 
-0.00064271 4.45206e-15 0 
-0.00049496 0.000112971 0 
-0.000507689 4.92865e-16 0 
-0.00049496 0.000112971 0 
-0.000507689 4.92851e-16 0 
-0.000395969 9.03773e-05 0 
-0.000406152 -3.51424e-15 0 
-0.000395969 9.03773e-05 0 
-0.000406152 -3.51422e-15 0 
-0.000319487 7.29208e-05 0 
-0.000327703 -6.20551e-15 0 
-0.000319487 7.29208e-05 0 
-0.000327703 -6.2055e-15 0 
-0.000259089 5.91353e-05 0 
-0.000265752 -7.06354e-15 0 
-0.000259089 5.91353e-05 0 
-0.000265752 -7.06355e-15 0 
-0.000210494 4.80439e-05 0 
-0.000215907 1.35525e-20 0 
-0.00863629 -7.03106e-14 0 
-0.00841976 -0.00192175 0 
-0.00372759 3.95213e-14 0 
-0.00363413 -0.000829466 0 
-0.00372759 3.95216e-14 0 
-0.00363413 -0.000829466 0 
-0.00222971 -2.57025e-14 0 
-0.00217381 -0.000496158 0 
-0.00222971 -2.57024e-14 0 
-0.00217381 -0.000496158 0 
-0.00151298 -1.58877e-14 0 
-0.00147505 -0.000336671 0 
-0.00151298 -1.58876e-14 0 
-0.00147505 -0.000336671 0 
-0.00109727 -9.49151e-16 0 
-0.00106976 -0.000244166 0 
-0.00109727 -9.48994e-16 0 
-0.00106976 -0.000244166 0 
-0.00082866 5.55793e-15 0 
-0.000807884 -0.000184394 0 
-0.00082866 5.55796e-15 0 
-0.000807884 -0.000184394 0 
-0.00064271 4.45206e-15 0 
-0.000626596 -0.000143016 0 
-0.00064271 4.45207e-15 0 
-0.000626596 -0.000143016 0 
-0.000507689 4.92811e-16 0 
-0.00049496 -0.000112971 0 
-0.000507689 4.92851e-16 0 
-0.00049496 -0.000112971 0 
-0.000406152 -3.51426e-15 0 
-0.000395969 -9.03773e-05 0 
-0.000406152 -3.51422e-15 0 
-0.000395969 -9.03773e-05 0 
-0.000327703 -6.20551e-15 0 
-0.000319487 -7.29208e-05 0 
-0.000327703 -6.20549e-15 0 
-0.000319487 -7.29208e-05 0 
-0.000265752 -7.06353e-15 0 
-0.000259089 -5.91353e-05 0 
-0.000265752 -7.06354e-15 0 
-0.000259089 -5.91353e-05 0 
-0.000215907 0 0 
-0.000210494 -4.80439e-05 0 
-0.00841976 -0.00192175 0 
-0.00778103 -0.00374714 0 
-0.00363413 -0.000829466 0 
-0.00335844 -0.00161734 0 
-0.00363413 -0.000829466 0 
-0.00335844 -0.00161734 0 
-0.00217381 -0.000496158 0 
-0.0020089 -0.000967437 0 
-0.00217381 -0.000496158 0 
-0.0020089 -0.000967437 0 
-0.00147505 -0.000336671 0 
-0.00136315 -0.000656459 0 
-0.00147505 -0.000336671 0 
-0.00136315 -0.000656459 0 
-0.00106976 -0.000244166 0 
-0.000988606 -0.000476088 0 
-0.00106976 -0.000244166 0 
-0.000988606 -0.000476088 0 
-0.000807884 -0.000184394 0 
-0.000746597 -0.000359542 0 
-0.000807884 -0.000184394 0 
-0.000746597 -0.000359542 0 
-0.000626596 -0.000143016 0 
-0.000579062 -0.000278861 0 
-0.000626596 -0.000143016 0 
-0.000579062 -0.000278861 0 
-0.00049496 -0.000112971 0 
-0.000457412 -0.000220278 0 
-0.00049496 -0.000112971 0 
-0.000457412 -0.000220278 0 
-0.000395969 -9.03773e-05 0 
-0.00036593 -0.000176223 0 
-0.000395969 -9.03773e-05 0 
-0.00036593 -0.000176223 0 
-0.000319487 -7.29208e-05 0 
-0.00029525 -0.000142185 0 
-0.000319487 -7.29208e-05 0 
-0.00029525 -0.000142185 0 
-0.000259089 -5.91353e-05 0 
-0.000239434 -0.000115305 0 
-0.000259089 -5.91353e-05 0 
-0.000239434 -0.000115305 0 
-0.000210494 -4.80439e-05 0 
-0.000194526 -9.36786e-05 0 
-0.00778103 -0.00374714 0 
-0.00675212 -0.00538464 0 
-0.00335844 -0.00161734 0 
-0.00291434 -0.00232411 0 
-0.00335844 -0.00161734 0 
-0.00291434 -0.00232411 0 
-0.0020089 -0.000967437 0 
-0.00174326 -0.0013902 0 
-0.0020089 -0.000967437 0 
-0.00174326 -0.0013902 0 
-0.00136315 -0.000656459 0 
-0.0011829 -0.00094333 0 
-0.00136315 -0.000656459 0 
-0.0011829 -0.00094333 0 
-0.000988606 -0.000476088 0 
-0.00085788 -0.000684137 0 
-0.000988606 -0.000476088 0 
-0.00085788 -0.000684137 0 
-0.000746597 -0.000359542 0 
-0.000647873 -0.000516661 0 
-0.000746597 -0.000359542 0 
-0.000647873 -0.000516661 0 
-0.000579062 -0.000278861 0 
-0.000502491 -0.000400723 0 
-0.000579062 -0.000278861 0 
-0.000502491 -0.000400723 0 
-0.000457412 -0.000220278 0 
-0.000396927 -0.000316539 0 
-0.000457412 -0.000220278 0 
-0.000396927 -0.000316539 0 
-0.00036593 -0.000176223 0 
-0.000317542 -0.000253232 0 
-0.00036593 -0.000176223 0 
-0.000317542 -0.000253232 0 
-0.00029525 -0.000142185 0 
-0.000256209 -0.00020432 0 
-0.00029525 -0.000142185 0 
-0.000256209 -0.00020432 0 
-0.000239434 -0.000115305 0 
-0.000207773 -0.000165694 0 
-0.000239434 -0.000115305 0 
-0.000207773 -0.000165694 0 
-0.000194526 -9.36786e-05 0 
-0.000168803 -0.000134616 0 
-0.00675212 -0.00538464 0 
-0.00538464 -0.00675212 0 
-0.00291434 -0.00232411 0 
-0.00232411 -0.00291434 0 
-0.00291434 -0.00232411 0 
-0.00232411 -0.00291434 0 
-0.00174326 -0.0013902 0 
-0.0013902 -0.00174326 0 
-0.00174326 -0.0013902 0 
-0.0013902 -0.00174326 0 
-0.0011829 -0.00094333 0 
-0.00094333 -0.0011829 0 
-0.0011829 -0.00094333 0 
-0.00094333 -0.0011829 0 
-0.00085788 -0.000684137 0 
-0.000684137 -0.00085788 0 
-0.00085788 -0.000684137 0 
-0.000684137 -0.00085788 0 
-0.000647873 -0.000516661 0 
-0.000516661 -0.000647873 0 
-0.000647873 -0.000516661 0 
-0.000516661 -0.000647873 0 
-0.000502491 -0.000400723 0 
-0.000400723 -0.000502491 0 
-0.000502491 -0.000400723 0 
-0.000400723 -0.000502491 0 
-0.000396927 -0.000316539 0 
-0.000316539 -0.000396927 0 
-0.000396927 -0.000316539 0 
-0.000316539 -0.000396927 0 
-0.000317542 -0.000253232 0 
-0.000253232 -0.000317542 0 
-0.000317542 -0.000253232 0 
-0.000253232 -0.000317542 0 
-0.000256209 -0.00020432 0 
-0.00020432 -0.000256209 0 
-0.000256209 -0.00020432 0 
-0.00020432 -0.000256209 0 
-0.000207773 -0.000165694 0 
-0.000165694 -0.000207773 0 
-0.000207773 -0.000165694 0 
-0.000165694 -0.000207773 0 
-0.000168803 -0.000134616 0 
-0.000134616 -0.000168803 0 
-0.00538464 -0.00675212 0 
-0.00374714 -0.00778103 0 
-0.00232411 -0.00291434 0 
-0.00161734 -0.00335844 0 
-0.00232411 -0.00291434 0 
-0.00161734 -0.00335844 0 
-0.0013902 -0.00174326 0 
-0.000967437 -0.0020089 0 
-0.0013902 -0.00174326 0 
-0.000967437 -0.0020089 0 
-0.00094333 -0.0011829 0 
-0.000656459 -0.00136315 0 
-0.00094333 -0.0011829 0 
-0.000656459 -0.00136315 0 
-0.000684137 -0.00085788 0 
-0.000476088 -0.000988606 0 
-0.000684137 -0.00085788 0 
-0.000476088 -0.000988606 0 
-0.000516661 -0.000647873 0 
-0.000359542 -0.000746597 0 
-0.000516661 -0.000647873 0 
-0.000359542 -0.000746597 0 
-0.000400723 -0.000502491 0 
-0.000278861 -0.000579062 0 
-0.000400723 -0.000502491 0 
-0.000278861 -0.000579062 0 
-0.000316539 -0.000396927 0 
-0.000220278 -0.000457412 0 
-0.000316539 -0.000396927 0 
-0.000220278 -0.000457412 0 
-0.000253232 -0.000317542 0 
-0.000176223 -0.00036593 0 
-0.000253232 -0.000317542 0 
-0.000176223 -0.00036593 0 
-0.00020432 -0.000256209 0 
-0.000142185 -0.00029525 0 
-0.00020432 -0.000256209 0 
-0.000142185 -0.00029525 0 
-0.000165694 -0.000207773 0 
-0.000115305 -0.000239434 0 
-0.000165694 -0.000207773 0 
-0.000115305 -0.000239434 0 
-0.000134616 -0.000168803 0 
-9.36786e-05 -0.000194526 0 
-0.00374714 -0.00778103 0 
-0.00192175 -0.00841976 0 
-0.00161734 -0.00335844 0 
-0.000829466 -0.00363413 0 
-0.00161734 -0.00335844 0 
-0.000829466 -0.00363413 0 
-0.000967437 -0.0020089 0 
-0.000496158 -0.00217381 0 
-0.000967437 -0.0020089 0 
-0.000496158 -0.00217381 0 
-0.000656459 -0.00136315 0 
-0.000336671 -0.00147505 0 
-0.000656459 -0.00136315 0 
-0.000336671 -0.00147505 0 
-0.000476088 -0.000988606 0 
-0.000244166 -0.00106976 0 
-0.000476088 -0.000988606 0 
-0.000244166 -0.00106976 0 
-0.000359542 -0.000746597 0 
-0.000184394 -0.000807884 0 
-0.000359542 -0.000746597 0 
-0.000184394 -0.000807884 0 
-0.000278861 -0.000579062 0 
-0.000143016 -0.000626596 0 
-0.000278861 -0.000579062 0 
-0.000143016 -0.000626596 0 
-0.000220278 -0.000457412 0 
-0.000112971 -0.00049496 0 
-0.000220278 -0.000457412 0 
-0.000112971 -0.00049496 0 
-0.000176223 -0.00036593 0 
-9.03773e-05 -0.000395969 0 
-0.000176223 -0.00036593 0 
-9.03773e-05 -0.000395969 0 
-0.000142185 -0.00029525 0 
-7.29208e-05 -0.000319487 0 
-0.000142185 -0.00029525 0 
-7.29208e-05 -0.000319487 0 
-0.000115305 -0.000239434 0 
-5.91353e-05 -0.000259089 0 
-0.000115305 -0.000239434 0 
-5.91353e-05 -0.000259089 0 
-9.36786e-05 -0.000194526 0 
-4.80439e-05 -0.000210494 0 
-0.00192175 -0.00841976 0 
6.98711e-14 -0.00863629 0 
-0.000829466 -0.00363413 0 
-3.99002e-14 -0.00372759 0 
-0.000829466 -0.00363413 0 
-3.99001e-14 -0.00372759 0 
-0.000496158 -0.00217381 0 
2.53786e-14 -0.00222971 0 
-0.000496158 -0.00217381 0 
2.53787e-14 -0.00222971 0 
-0.000336671 -0.00147505 0 
1.56125e-14 -0.00151298 0 
-0.000336671 -0.00147505 0 
1.56125e-14 -0.00151298 0 
-0.000244166 -0.00106976 0 
7.14706e-16 -0.00109727 0 
-0.000244166 -0.00106976 0 
7.14652e-16 -0.00109727 0 
-0.000184394 -0.000807884 0 
-5.75625e-15 -0.00082866 0 
-0.000184394 -0.000807884 0 
-5.75631e-15 -0.00082866 0 
-0.000143016 -0.000626596 0 
-4.61656e-15 -0.00064271 0 
-0.000143016 -0.000626596 0 
-4.61659e-15 -0.00064271 0 
-0.000112971 -0.00049496 0 
-6.25029e-16 -0.000507689 0 
-0.000112971 -0.00049496 0 
-6.25056e-16 -0.000507689 0 
-9.03773e-05 -0.000395969 0 
3.41415e-15 -0.000406152 0 
-9.03773e-05 -0.000395969 0 
3.41413e-15 -0.000406152 0 
-7.29208e-05 -0.000319487 0 
6.13816e-15 -0.000327703 0 
-7.29208e-05 -0.000319487 0 
6.13814e-15 -0.000327703 0 
-5.91353e-05 -0.000259089 0 
7.03047e-15 -0.000265752 0 
-5.91353e-05 -0.000259089 0 
7.03046e-15 -0.000265752 0 
-4.80439e-05 -0.000210494 0 
0 -0.000215907 0 
6.98711e-14 -0.00863629 0 
0.00192175 -0.00841976 0 
-3.99e-14 -0.00372759 0 
0.000829466 -0.00363413 0 
-3.99003e-14 -0.00372759 0 
0.000829466 -0.00363413 0 
2.53787e-14 -0.00222971 0 
0.000496158 -0.00217381 0 
2.53787e-14 -0.00222971 0 
0.000496158 -0.00217381 0 
1.56125e-14 -0.00151298 0 
0.000336671 -0.00147505 0 
1.56125e-14 -0.00151298 0 
0.000336671 -0.00147505 0 
7.14781e-16 -0.00109727 0 
0.000244166 -0.00106976 0 
7.14679e-16 -0.00109727 0 
0.000244166 -0.00106976 0 
-5.75628e-15 -0.00082866 0 
0.000184394 -0.000807884 0 
-5.75629e-15 -0.00082866 0 
0.000184394 -0.000807884 0 
-4.61656e-15 -0.00064271 0 
0.000143016 -0.000626596 0 
-4.6166e-15 -0.00064271 0 
0.000143016 -0.000626596 0 
-6.25049e-16 -0.000507689 0 
0.000112971 -0.00049496 0 
-6.25075e-16 -0.000507689 0 
0.000112971 -0.00049496 0 
3.41413e-15 -0.000406152 0 
9.03773e-05 -0.000395969 0 
3.41411e-15 -0.000406152 0 
9.03773e-05 -0.000395969 0 
6.13817e-15 -0.000327703 0 
7.29208e-05 -0.000319487 0 
6.13816e-15 -0.000327703 0 
7.29208e-05 -0.000319487 0 
7.03045e-15 -0.000265752 0 
5.91353e-05 -0.000259089 0 
7.03046e-15 -0.000265752 0 
5.91353e-05 -0.000259089 0 
0 -0.000215907 0 
4.80439e-05 -0.000210494 0 
0.00192175 -0.00841976 0 
0.00374714 -0.00778103 0 
0.000829466 -0.00363413 0 
0.00161734 -0.00335844 0 
0.000829466 -0.00363413 0 
0.00161734 -0.00335844 0 
0.000496158 -0.00217381 0 
0.000967437 -0.0020089 0 
0.000496158 -0.00217381 0 
0.000967437 -0.0020089 0 
0.000336671 -0.00147505 0 
0.000656459 -0.00136315 0 
0.000336671 -0.00147505 0 
0.000656459 -0.00136315 0 
0.000244166 -0.00106976 0 
0.000476088 -0.000988606 0 
0.000244166 -0.00106976 0 
0.000476088 -0.000988606 0 
0.000184394 -0.000807884 0 
0.000359542 -0.000746597 0 
0.000184394 -0.000807884 0 
0.000359542 -0.000746597 0 
0.000143016 -0.000626596 0 
0.000278861 -0.000579062 0 
0.000143016 -0.000626596 0 
0.000278861 -0.000579062 0 
0.000112971 -0.00049496 0 
0.000220278 -0.000457412 0 
0.000112971 -0.00049496 0 
0.000220278 -0.000457412 0 
9.03773e-05 -0.000395969 0 
0.000176223 -0.00036593 0 
9.03773e-05 -0.000395969 0 
0.000176223 -0.00036593 0 
7.29208e-05 -0.000319487 0 
0.000142185 -0.00029525 0 
7.29208e-05 -0.000319487 0 
0.000142185 -0.00029525 0 
5.91353e-05 -0.000259089 0 
0.000115305 -0.000239434 0 
5.91353e-05 -0.000259089 0 
0.000115305 -0.000239434 0 
4.80439e-05 -0.000210494 0 
9.36786e-05 -0.000194526 0 
0.00374714 -0.00778103 0 
0.00538464 -0.00675212 0 
0.00161734 -0.00335844 0 
0.00232411 -0.00291434 0 
0.00161734 -0.00335844 0 
0.00232411 -0.00291434 0 
0.000967437 -0.0020089 0 
0.0013902 -0.00174326 0 
0.000967437 -0.0020089 0 
0.0013902 -0.00174326 0 
0.000656459 -0.00136315 0 
0.00094333 -0.0011829 0 
0.000656459 -0.00136315 0 
0.00094333 -0.0011829 0 
0.000476088 -0.000988606 0 
0.000684137 -0.00085788 0 
0.000476088 -0.000988606 0 
0.000684137 -0.00085788 0 
0.000359542 -0.000746597 0 
0.000516661 -0.000647873 0 
0.000359542 -0.000746597 0 
0.000516661 -0.000647873 0 
0.000278861 -0.000579062 0 
0.000400723 -0.000502491 0 
0.000278861 -0.000579062 0 
0.000400723 -0.000502491 0 
0.000220278 -0.000457412 0 
0.000316539 -0.000396927 0 
0.000220278 -0.000457412 0 
0.000316539 -0.000396927 0 
0.000176223 -0.00036593 0 
0.000253232 -0.000317542 0 
0.000176223 -0.00036593 0 
0.000253232 -0.000317542 0 
0.000142185 -0.00029525 0 
0.00020432 -0.000256209 0 
0.000142185 -0.00029525 0 
0.00020432 -0.000256209 0 
0.000115305 -0.000239434 0 
0.000165694 -0.000207773 0 
0.000115305 -0.000239434 0 
0.000165694 -0.000207773 0 
9.36786e-05 -0.000194526 0 
0.000134616 -0.000168803 0 
0.00538464 -0.00675212 0 
0.00675212 -0.00538464 0 
0.00232411 -0.00291434 0 
0.00291434 -0.00232411 0 
0.00232411 -0.00291434 0 
0.00291434 -0.00232411 0 
0.0013902 -0.00174326 0 
0.00174326 -0.0013902 0 
0.0013902 -0.00174326 0 
0.00174326 -0.0013902 0 
0.00094333 -0.0011829 0 
0.0011829 -0.00094333 0 
0.00094333 -0.0011829 0 
0.0011829 -0.00094333 0 
0.000684137 -0.00085788 0 
0.00085788 -0.000684137 0 
0.000684137 -0.00085788 0 
0.00085788 -0.000684137 0 
0.000516661 -0.000647873 0 
0.000647873 -0.000516661 0 
0.000516661 -0.000647873 0 
0.000647873 -0.000516661 0 
0.000400723 -0.000502491 0 
0.000502491 -0.000400723 0 
0.000400723 -0.000502491 0 
0.000502491 -0.000400723 0 
0.000316539 -0.000396927 0 
0.000396927 -0.000316539 0 
0.000316539 -0.000396927 0 
0.000396927 -0.000316539 0 
0.000253232 -0.000317542 0 
0.000317542 -0.000253232 0 
0.000253232 -0.000317542 0 
0.000317542 -0.000253232 0 
0.00020432 -0.000256209 0 
0.000256209 -0.00020432 0 
0.00020432 -0.000256209 0 
0.000256209 -0.00020432 0 
0.000165694 -0.000207773 0 
0.000207773 -0.000165694 0 
0.000165694 -0.000207773 0 
0.000207773 -0.000165694 0 
0.000134616 -0.000168803 0 
0.000168803 -0.000134616 0 
0.00675212 -0.00538464 0 
0.00778103 -0.00374714 0 
0.00291434 -0.00232411 0 
0.00335844 -0.00161734 0 
0.00291434 -0.00232411 0 
0.00335844 -0.00161734 0 
0.00174326 -0.0013902 0 
0.0020089 -0.000967437 0 
0.00174326 -0.0013902 0 
0.0020089 -0.000967437 0 
0.0011829 -0.00094333 0 
0.00136315 -0.000656459 0 
0.0011829 -0.00094333 0 
0.00136315 -0.000656459 0 
0.00085788 -0.000684137 0 
0.000988606 -0.000476088 0 
0.00085788 -0.000684137 0 
0.000988606 -0.000476088 0 
0.000647873 -0.000516661 0 
0.000746597 -0.000359542 0 
0.000647873 -0.000516661 0 
0.000746597 -0.000359542 0 
0.000502491 -0.000400723 0 
0.000579062 -0.000278861 0 
0.000502491 -0.000400723 0 
0.000579062 -0.000278861 0 
0.000396927 -0.000316539 0 
0.000457412 -0.000220278 0 
0.000396927 -0.000316539 0 
0.000457412 -0.000220278 0 
0.000317542 -0.000253232 0 
0.00036593 -0.000176223 0 
0.000317542 -0.000253232 0 
0.00036593 -0.000176223 0 
0.000256209 -0.00020432 0 
0.00029525 -0.000142185 0 
0.000256209 -0.00020432 0 
0.00029525 -0.000142185 0 
0.000207773 -0.000165694 0 
0.000239434 -0.000115305 0 
0.000207773 -0.000165694 0 
0.000239434 -0.000115305 0 
0.000168803 -0.000134616 0 
0.000194526 -9.36786e-05 0 
0.00778103 -0.00374714 0 
0.00841976 -0.00192175 0 
0.00335844 -0.00161734 0 
0.00363413 -0.000829466 0 
0.00335844 -0.00161734 0 
0.00363413 -0.000829466 0 
0.0020089 -0.000967437 0 
0.00217381 -0.000496158 0 
0.0020089 -0.000967437 0 
0.00217381 -0.000496158 0 
0.00136315 -0.000656459 0 
0.00147505 -0.000336671 0 
0.00136315 -0.000656459 0 
0.00147505 -0.000336671 0 
0.000988606 -0.000476088 0 
0.00106976 -0.000244166 0 
0.000988606 -0.000476088 0 
0.00106976 -0.000244166 0 
0.000746597 -0.000359542 0 
0.000807884 -0.000184394 0 
0.000746597 -0.000359542 0 
0.000807884 -0.000184394 0 
0.000579062 -0.000278861 0 
0.000626596 -0.000143016 0 
0.000579062 -0.000278861 0 
0.000626596 -0.000143016 0 
0.000457412 -0.000220278 0 
0.00049496 -0.000112971 0 
0.000457412 -0.000220278 0 
0.00049496 -0.000112971 0 
0.00036593 -0.000176223 0 
0.000395969 -9.03773e-05 0 
0.00036593 -0.000176223 0 
0.000395969 -9.03773e-05 0 
0.00029525 -0.000142185 0 
0.000319487 -7.29208e-05 0 
0.00029525 -0.000142185 0 
0.000319487 -7.29208e-05 0 
0.000239434 -0.000115305 0 
0.000259089 -5.91353e-05 0 
0.000239434 -0.000115305 0 
0.000259089 -5.91353e-05 0 
0.000194526 -9.36786e-05 0 
0.000210494 -4.80439e-05 0 
0.00841976 -0.00192175 0 
0.00863629 6.89069e-14 0 
0.00363413 -0.000829466 0 
0.00372759 -4.06981e-14 0 
0.00363413 -0.000829466 0 
0.00372759 -4.06985e-14 0 
0.00217381 -0.000496158 0 
0.00222971 2.46994e-14 0 
0.00217381 -0.000496158 0 
0.00222971 2.46993e-14 0 
0.00147505 -0.000336671 0 
0.00151298 1.50258e-14 0 
0.00147505 -0.000336671 0 
0.00151298 1.50258e-14 0 
0.00106976 -0.000244166 0 
0.00109727 2.07896e-16 0 
0.00106976 -0.000244166 0 
0.00109727 2.07977e-16 0 
0.000807884 -0.000184394 0 
0.00082866 -6.18998e-15 0 
0.000807884 -0.000184394 0 
0.00082866 -6.18995e-15 0 
0.000626596 -0.000143016 0 
0.00064271 -4.9808e-15 0 
0.000626596 -0.000143016 0 
0.00064271 -4.9808e-15 0 
0.00049496 -0.000112971 0 
0.000507689 -9.20528e-16 0 
0.00049496 -0.000112971 0 
0.000507689 -9.20542e-16 0 
0.000395969 -9.03773e-05 0 
0.000406152 3.18758e-15 0 
0.000395969 -9.03773e-05 0 
0.000406152 3.18758e-15 0 
0.000319487 -7.29208e-05 0 
0.000327703 5.98261e-15 0 
0.000319487 -7.29208e-05 0 
0.000327703 5.98261e-15 0 
0.000259089 -5.91353e-05 0 
0.000265752 6.94803e-15 0 
0.000259089 -5.91353e-05 0 
0.000265752 6.94804e-15 0 
0.000210494 -4.80439e-05 0 
0.000215907 0 0 

TENSORS Stress float
40.7451 0 0 0 40.7451 0 0 0 40.7451 
40.7451 0 0 0 40.7451 0 0 0 40.7451 
-28.5387 0 0 0 -28.5387 0 0 0 -28.5387 
-28.5387 0 0 0 -28.5387 0 0 0 -28.5387 
5.92397 0 0 0 5.92397 0 0 0 5.92397 
5.92397 0 0 0 5.92397 0 0 0 5.92397 
-4.73599 0 0 0 -4.73599 0 0 0 -4.73599 
-4.73599 0 0 0 -4.73599 0 0 0 -4.73599 
1.7489 0 0 0 1.7489 0 0 0 1.7489 
1.7489 0 0 0 1.7489 0 0 0 1.7489 
-1.48928 0 0 0 -1.48928 0 0 0 -1.48928 
-1.48928 0 0 0 -1.48928 0 0 0 -1.48928 
0.696345 0 0 0 0.696345 0 0 0 0.696345 
0.696345 0 0 0 0.696345 0 0 0 0.696345 
-0.619038 0 0 0 -0.619038 0 0 0 -0.619038 
-0.619038 0 0 0 -0.619038 0 0 0 -0.619038 
0.326412 0 0 0 0.326412 0 0 0 0.326412 
0.326412 0 0 0 0.326412 0 0 0 0.326412 
-0.302031 0 0 0 -0.302031 0 0 0 -0.302031 
-0.302031 0 0 0 -0.302031 0 0 0 -0.302031 
0.168918 0 0 0 0.168918 0 0 0 0.168918 
0.168918 0 0 0 0.168918 0 0 0 0.168918 
-0.163873 0 0 0 -0.163873 0 0 0 -0.163873 
-0.163873 0 0 0 -0.163873 0 0 0 -0.163873 
0.0929547 4.33681e-19 0 4.33681e-19 0.0929547 0 0 0 0.0929547 
0.0929547 -1.16204e-19 0 -1.16204e-19 0.0929547 0 0 0 0.0929547 
-0.0961339 -1.61852e-18 0 -1.61852e-18 -0.0961339 0 0 0 -0.0961339 
-0.0961339 4.33681e-19 0 4.33681e-19 -0.0961339 0 0 0 -0.0961339 
0.0529758 -2.0522e-18 0 -2.0522e-18 0.0529758 0 0 0 0.0529758 
0.0529758 2.0522e-18 0 2.0522e-18 0.0529758 0 0 0 0.0529758 
-0.060051 5.49885e-19 0 5.49885e-19 -0.060051 0 0 0 -0.060051 
-0.060051 -5.49885e-19 0 -5.49885e-19 -0.060051 0 0 0 -0.060051 
0.0305457 0 0 0 0.0305457 0 0 0 0.0305457 
0.0305457 0 0 0 0.0305457 0 0 0 0.0305457 
-0.0396204 0 0 0 -0.0396204 0 0 0 -0.0396204 
-0.0396204 0 0 0 -0.0396204 0 0 0 -0.0396204 
0.0173367 1.934e-13 0 1.934e-13 0.0173367 0 0 0 0.0173367 
0.0173367 -7.21779e-13 0 -7.21779e-13 0.0173367 0 0 0 0.0173367 
-0.0275027 -5.18214e-14 0 -5.18214e-14 -0.0275027 0 0 0 -0.0275027 
-0.0275027 1.934e-13 0 1.934e-13 -0.0275027 0 0 0 -0.0275027 
0.00925974 -1.45256e-20 0 -1.45256e-20 0.00925974 0 0 0 0.00925974 
0.00925974 5.42101e-20 0 5.42101e-20 0.00925974 0 0 0 0.00925974 
-0.0200511 5.42101e-20 0 5.42101e-20 -0.0200511 0 0 0 -0.0200511 
-0.0200511 -2.02315e-19 0 -2.02315e-19 -0.0200511 0 0 0 -0.0200511 
40.7451 -8.88178e-16 0 -8.88178e-16 40.7451 0 0 0 40.7451 
40.7451 2.37987e-16 0 2.37987e-16 40.7451 0 0 0 40.7451 
-28.5387 3.31473e-15 0 3.31473e-15 -28.5387 0 0 0 -28.5387 
-28.5387 -8.88178e-16 0 -8.88178e-16 -28.5387 0 0 0 -28.5387 
5.92397 -5.55112e-17 0 -5.55112e-17 5.92397 0 0 0 5.92397 
5.92397 2.0717e-16 0 2.0717e-16 5.92397 0 0 0 5.92397 
-4.73599 1.48742e-17 0 1.48742e-17 -4.73599 0 0 0 -4.73599 
-4.73599 -5.55112e-17 0 -5.55112e-17 -4.73599 0 0 0 -4.73599 
1.7489 0 0 0 1.7489 0 0 0 1.7489 
1.7489 0 0 0 1.7489 0 0 0 1.7489 
-1.48928 0 0 0 -1.48928 0 0 0 -1.48928 
-1.48928 0 0 0 -1.48928 0 0 0 -1.48928 
0.696345 0 0 0 0.696345 0 0 0 0.696345 
0.696345 0 0 0 0.696345 0 0 0 0.696345 
-0.619038 0 0 0 -0.619038 0 0 0 -0.619038 
-0.619038 0 0 0 -0.619038 0 0 0 -0.619038 
0.326412 0 0 0 0.326412 0 0 0 0.326412 
0.326412 0 0 0 0.326412 0 0 0 0.326412 
-0.302031 0 0 0 -0.302031 0 0 0 -0.302031 
-0.302031 0 0 0 -0.302031 0 0 0 -0.302031 
0.168918 -9.29636e-19 0 -9.29636e-19 0.168918 0 0 0 0.168918 
0.168918 3.46945e-18 0 3.46945e-18 0.168918 0 0 0 0.168918 
-0.163873 3.46945e-18 0 3.46945e-18 -0.163873 0 0 0 -0.163873 
-0.163873 -1.29482e-17 0 -1.29482e-17 -0.163873 0 0 0 -0.163873 
0.0929547 0 0 0 0.0929547 0 0 0 0.0929547 
0.0929547 0 0 0 0.0929547 0 0 0 0.0929547 
-0.0961339 0 0 0 -0.0961339 0 0 0 -0.0961339 
-0.0961339 0 0 0 -0.0961339 0 0 0 -0.0961339 
0.0529758 0 0 0 0.0529758 0 0 0 0.0529758 
0.0529758 0 0 0 0.0529758 0 0 0 0.0529758 
-0.060051 0 0 0 -0.060051 0 0 0 -0.060051 
-0.060051 0 0 0 -0.060051 0 0 0 -0.060051 
0.0305457 -2.0522e-18 0 -2.0522e-18 0.0305457 0 0 0 0.0305457 
0.0305457 2.0522e-18 0 2.0522e-18 0.0305457 0 0 0 0.0305457 
-0.0396204 5.49885e-19 0 5.49885e-19 -0.0396204 0 0 0 -0.0396204 
-0.0396204 -5.49885e-19 0 -5.49885e-19 -0.0396204 0 0 0 -0.0396204 
0.0173367 4.33681e-19 0 4.33681e-19 0.0173367 0 0 0 0.0173367 
0.0173367 -1.61852e-18 0 -1.61852e-18 0.0173367 0 0 0 0.0173367 
-0.0275027 -1.16204e-19 0 -1.16204e-19 -0.0275027 0 0 0 -0.0275027 
-0.0275027 4.33681e-19 0 4.33681e-19 -0.0275027 0 0 0 -0.0275027 
0.00925974 0 0 0 0.00925974 0 0 0 0.00925974 
0.00925974 0 0 0 0.00925974 0 0 0 0.00925974 
-0.0200511 0 0 0 -0.0200511 0 0 0 -0.0200511 
-0.0200511 0 0 0 -0.0200511 0 0 0 -0.0200511 
40.7451 0 0 0 40.7451 0 0 0 40.7451 
40.7451 0 0 0 40.7451 0 0 0 40.7451 
-28.5387 0 0 0 -28.5387 0 0 0 -28.5387 
-28.5387 0 0 0 -28.5387 0 0 0 -28.5387 
5.92397 -2.97483e-17 0 -2.97483e-17 5.92397 0 0 0 5.92397 
5.92397 1.11022e-16 0 1.11022e-16 5.92397 0 0 0 5.92397 
-4.73599 1.11022e-16 0 1.11022e-16 -4.73599 0 0 0 -4.73599 
-4.73599 -4.14341e-16 0 -4.14341e-16 -4.73599 0 0 0 -4.73599 
1.7489 6.93889e-18 0 6.93889e-18 1.7489 0 0 0 1.7489 
1.7489 -1.85927e-18 0 -1.85927e-18 1.7489 0 0 0 1.7489 
-1.48928 -2.58963e-17 0 -2.58963e-17 -1.48928 0 0 0 -1.48928 
-1.48928 6.93889e-18 0 6.93889e-18 -1.48928 0 0 0 -1.48928 
0.696345 0 0 0 0.696345 0 0 0 0.696345 
0.696345 0 0 0 0.696345 0 0 0 0.696345 
-0.619038 0 0 0 -0.619038 0 0 0 -0.619038 
-0.619038 0 0 0 -0.619038 0 0 0 -0.619038 
0.326412 8.67362e-18 0 8.67362e-18 0.326412 0 0 0 0.326412 
0.326412 -3.83796e-17 0 -3.83796e-17 0.326412 0 0 0 0.326412 
-0.302031 3.68517e-18 0 3.68517e-18 -0.302031 0 0 0 -0.302031 
-0.302031 8.67362e-18 0 8.67362e-18 -0.302031 0 0 0 -0.302031 
0.168918 0 0 0 0.168918 0 0 0 0.168918 
0.168918 0 0 0 0.168918 0 0 0 0.168918 
-0.163873 0 0 0 -0.163873 0 0 0 -0.163873 
-0.163873 0 0 0 -0.163873 0 0 0 -0.163873 
0.0929547 0 0 0 0.0929547 0 0 0 0.0929547 
0.0929547 0 0 0 0.0929547 0 0 0 0.0929547 
-0.0961339 0 0 0 -0.0961339 0 0 0 -0.0961339 
-0.0961339 0 0 0 -0.0961339 0 0 0 -0.0961339 
0.0529758 0 0 0 0.0529758 0 0 0 0.0529758 
0.0529758 0 0 0 0.0529758 0 0 0 0.0529758 
-0.060051 0 0 0 -0.060051 0 0 0 -0.060051 
-0.060051 0 0 0 -0.060051 0 0 0 -0.060051 
0.0305457 0 0 0 0.0305457 0 0 0 0.0305457 
0.0305457 0 0 0 0.0305457 0 0 0 0.0305457 
-0.0396204 0 0 0 -0.0396204 0 0 0 -0.0396204 
-0.0396204 0 0 0 -0.0396204 0 0 0 -0.0396204 
0.0173367 0 0 0 0.0173367 0 0 0 0.0173367 
0.0173367 0 0 0 0.0173367 0 0 0 0.0173367 
-0.0275027 0 0 0 -0.0275027 0 0 0 -0.0275027 
-0.0275027 0 0 0 -0.0275027 0 0 0 -0.0275027 
0.00925974 0 0 0 0.00925974 0 0 0 0.00925974 
0.00925974 0 0 0 0.00925974 0 0 0 0.00925974 
-0.0200511 0 0 0 -0.0200511 0 0 0 -0.0200511 
-0.0200511 0 0 0 -0.0200511 0 0 0 -0.0200511 
40.7451 -8.88178e-16 0 -8.88178e-16 40.7451 0 0 0 40.7451 
40.7451 2.37987e-16 0 2.37987e-16 40.7451 0 0 0 40.7451 
-28.5387 3.31473e-15 0 3.31473e-15 -28.5387 0 0 0 -28.5387 
-28.5387 -8.88178e-16 0 -8.88178e-16 -28.5387 0 0 0 -28.5387 
5.92397 0 0 0 5.92397 0 0 0 5.92397 
5.92397 0 0 0 5.92397 0 0 0 5.92397 
-4.73599 0 0 0 -4.73599 0 0 0 -4.73599 
-4.73599 0 0 0 -4.73599 0 0 0 -4.73599 
1.7489 -7.43708e-18 0 -7.43708e-18 1.7489 0 0 0 1.7489 
1.7489 2.77556e-17 0 2.77556e-17 1.7489 0 0 0 1.7489 
-1.48928 2.77556e-17 0 2.77556e-17 -1.48928 0 0 0 -1.48928 
-1.48928 -1.03585e-16 0 -1.03585e-16 -1.48928 0 0 0 -1.48928 
0.696345 0 0 0 0.696345 0 0 0 0.696345 
0.696345 0 0 0 0.696345 0 0 0 0.696345 
-0.619038 0 0 0 -0.619038 0 0 0 -0.619038 
-0.619038 0 0 0 -0.619038 0 0 0 -0.619038 
0.326412 8.67362e-19 0 8.67362e-19 0.326412 0 0 0 0.326412 
0.326412 -2.32409e-19 0 -2.32409e-19 0.326412 0 0 0 0.326412 
-0.302031 -3.23704e-18 0 -3.23704e-18 -0.302031 0 0 0 -0.302031 
-0.302031 8.67362e-19 0 8.67362e-19 -0.302031 0 0 0 -0.302031 
0.168918 4.39908e-18 0 4.39908e-18 0.168918 0 0 0 0.168918 
0.168918 -1.64176e-17 0 -1.64176e-17 0.168918 0 0 0 0.168918 
-0.163873 -4.39908e-18 0 -4.39908e-18 -0.163873 0 0 0 -0.163873 
-0.163873 1.64176e-17 0 1.64176e-17 -0.163873 0 0 0 -0.163873 
0.0929547 1.29482e-17 0 1.29482e-17 0.0929547 0 0 0 0.0929547 
0.0929547 -3.46945e-18 0 -3.46945e-18 0.0929547 0 0 0 0.0929547 
-0.0961339 -3.46945e-18 0 -3.46945e-18 -0.0961339 0 0 0 -0.0961339 
-0.0961339 9.29636e-19 0 9.29636e-19 -0.0961339 0 0 0 -0.0961339 
0.0529758 4.64818e-19 0 4.64818e-19 0.0529758 0 0 0 0.0529758 
0.0529758 -1.73472e-18 0 -1.73472e-18 0.0529758 0 0 0 0.0529758 
-0.060051 -1.73472e-18 0 -1.73472e-18 -0.060051 0 0 0 -0.060051 
-0.060051 6.47408e-18 0 6.47408e-18 -0.060051 0 0 0 -0.060051 
0.0305457 4.33681e-19 0 4.33681e-19 0.0305457 0 0 0 0.0305457 
0.0305457 1.38611e-18 0 1.38611e-18 0.0305457 0 0 0 0.0305457 
-0.0396204 -3.12083e-18 0 -3.12083e-18 -0.0396204 0 0 0 -0.0396204 
-0.0396204 4.33681e-19 0 4.33681e-19 -0.0396204 0 0 0 -0.0396204 
0.0173367 -8.67362e-19 0 -8.67362e-19 0.0173367 0 0 0 0.0173367 
0.0173367 2.32409e-19 0 2.32409e-19 0.0173367 0 0 0 0.0173367 
-0.0275027 3.23704e-18 0 3.23704e-18 -0.0275027 0 0 0 -0.0275027 
-0.0275027 -8.67362e-19 0 -8.67362e-19 -0.0275027 0 0 0 -0.0275027 
0.00925974 -8.67362e-19 0 -8.67362e-19 0.00925974 0 0 0 0.00925974 
0.00925974 2.32409e-19 0 2.32409e-19 0.00925974 0 0 0 0.00925974 
-0.0200511 3.23704e-18 0 3.23704e-18 -0.0200511 0 0 0 -0.0200511 
-0.0200511 -8.67362e-19 0 -8.67362e-19 -0.0200511 0 0 0 -0.0200511 
40.7451 0 0 0 40.7451 0 0 0 40.7451 
40.7451 0 0 0 40.7451 0 0 0 40.7451 
-28.5387 0 0 0 -28.5387 0 0 0 -28.5387 
-28.5387 0 0 0 -28.5387 0 0 0 -28.5387 
5.92397 0 0 0 5.92397 0 0 0 5.92397 
5.92397 0 0 0 5.92397 0 0 0 5.92397 
-4.73599 0 0 0 -4.73599 0 0 0 -4.73599 
-4.73599 0 0 0 -4.73599 0 0 0 -4.73599 
1.7489 0 0 0 1.7489 0 0 0 1.7489 
1.7489 0 0 0 1.7489 0 0 0 1.7489 
-1.48928 0 0 0 -1.48928 0 0 0 -1.48928 
-1.48928 0 0 0 -1.48928 0 0 0 -1.48928 
0.696345 0 0 0 0.696345 0 0 0 0.696345 
0.696345 0 0 0 0.696345 0 0 0 0.696345 
-0.619038 0 0 0 -0.619038 0 0 0 -0.619038 
-0.619038 0 0 0 -0.619038 0 0 0 -0.619038 
0.326412 6.93889e-18 0 6.93889e-18 0.326412 0 0 0 0.326412 
0.326412 -2.58963e-17 0 -2.58963e-17 0.326412 0 0 0 0.326412 
-0.302031 -1.85927e-18 0 -1.85927e-18 -0.302031 0 0 0 -0.302031 
-0.302031 6.93889e-18 0 6.93889e-18 -0.302031 0 0 0 -0.302031 
0.168918 0 0 0 0.168918 0 0 0 0.168918 
0.168918 0 0 0 0.168918 0 0 0 0.168918 
-0.163873 0 0 0 -0.163873 0 0 0 -0.163873 
-0.163873 0 0 0 -0.163873 0 0 0 -0.163873 
0.0929547 0 0 0 0.0929547 0 0 0 0.0929547 
0.0929547 0 0 0 0.0929547 0 0 0 0.0929547 
-0.0961339 0 0 0 -0.0961339 0 0 0 -0.0961339 
-0.0961339 0 0 0 -0.0961339 0 0 0 -0.0961339 
0.0529758 -8.67362e-19 0 -8.67362e-19 0.0529758 0 0 0 0.0529758 
0.0529758 -2.77222e-18 0 -2.77222e-18 0.0529758 0 0 0 0.0529758 
-0.060051 6.24167e-18 0 6.24167e-18 -0.060051 0 0 0 -0.060051 
-0.060051 -8.67362e-19 0 -8.67362e-19 -0.060051 0 0 0 -0.060051 
0.0305457 0 0 0 0.0305457 0 0 0 0.0305457 
0.0305457 0 0 0 0.0305457 0 0 0 0.0305457 
-0.0396204 0 0 0 -0.0396204 0 0 0 -0.0396204 
-0.0396204 0 0 0 -0.0396204 0 0 0 -0.0396204 
0.0173367 -6.4941e-14 0 -6.4941e-14 0.0173367 0 0 0 0.0173367 
0.0173367 1.74009e-14 0 1.74009e-14 0.0173367 0 0 0 0.0173367 
-0.0275027 2.42357e-13 0 2.42357e-13 -0.0275027 0 0 0 -0.0275027 
-0.0275027 -6.49395e-14 0 -6.49395e-14 -0.0275027 0 0 0 -0.0275027 
0.00925974 1.0842e-19 0 1.0842e-19 0.00925974 0 0 0 0.00925974 
0.00925974 -4.0463e-19 0 -4.0463e-19 0.00925974 0 0 0 0.00925974 
-0.0200511 -2.90511e-20 0 -2.90511e-20 -0.0200511 0 0 0 -0.0200511 
-0.0200511 1.0842e-19 0 1.0842e-19 -0.0200511 0 0 0 -0.0200511 
40.7451 1.18993e-16 0 1.18993e-16 40.7451 0 0 0 40.7451 
40.7451 -4.44089e-16 0 -4.44089e-16 40.7451 0 0 0 40.7451 
-28.5387 -4.44089e-16 0 -4.44089e-16 -28.5387 0 0 0 -28.5387 
-28.5387 1.65736e-15 0 1.65736e-15 -28.5387 0 0 0 -28.5387 
5.92397 1.48742e-17 0 1.48742e-17 5.92397 0 0 0 5.92397 
5.92397 -5.55112e-17 0 -5.55112e-17 5.92397 0 0 0 5.92397 
-4.73599 -5.55112e-17 0 -5.55112e-17 -4.73599 0 0 0 -4.73599 
-4.73599 2.0717e-16 0 2.0717e-16 -4.73599 0 0 0 -4.73599 
1.7489 0 0 0 1.7489 0 0 0 1.7489 
1.7489 0 0 0 1.7489 0 0 0 1.7489 
-1.48928 0 0 0 -1.48928 0 0 0 -1.48928 
-1.48928 0 0 0 -1.48928 0 0 0 -1.48928 
0.696345 -2.58963e-17 0 -2.58963e-17 0.696345 0 0 0 0.696345 
0.696345 6.93889e-18 0 6.93889e-18 0.696345 0 0 0 0.696345 
-0.619038 6.93889e-18 0 6.93889e-18 -0.619038 0 0 0 -0.619038 
-0.619038 -1.85927e-18 0 -1.85927e-18 -0.619038 0 0 0 -0.619038 
0.326412 0 0 0 0.326412 0 0 0 0.326412 
0.326412 0 0 0 0.326412 0 0 0 0.326412 
-0.302031 0 0 0 -0.302031 0 0 0 -0.302031 
-0.302031 0 0 0 -0.302031 0 0 0 -0.302031 
0.168918 0 0 0 0.168918 0 0 0 0.168918 
0.168918 0 0 0 0.168918 0 0 0 0.168918 
-0.163873 0 0 0 -0.163873 0 0 0 -0.163873 
-0.163873 0 0 0 -0.163873 0 0 0 -0.163873 
0.0929547 0 0 0 0.0929547 0 0 0 0.0929547 
0.0929547 0 0 0 0.0929547 0 0 0 0.0929547 
-0.0961339 0 0 0 -0.0961339 0 0 0 -0.0961339 
-0.0961339 0 0 0 -0.0961339 0 0 0 -0.0961339 
0.0529758 4.33681e-19 0 4.33681e-19 0.0529758 0 0 0 0.0529758 
0.0529758 -1.61852e-18 0 -1.61852e-18 0.0529758 0 0 0 0.0529758 
-0.060051 -1.16204e-19 0 -1.16204e-19 -0.060051 0 0 0 -0.060051 
-0.060051 4.33681e-19 0 4.33681e-19 -0.060051 0 0 0 -0.060051 
0.0305457 4.33681e-19 0 4.33681e-19 0.0305457 0 0 0 0.0305457 
0.0305457 -1.61852e-18 0 -1.61852e-18 0.0305457 0 0 0 0.0305457 
-0.0396204 -1.16204e-19 0 -1.16204e-19 -0.0396204 0 0 0 -0.0396204 
-0.0396204 4.33681e-19 0 4.33681e-19 -0.0396204 0 0 0 -0.0396204 
0.0173367 0 0 0 0.0173367 0 0 0 0.0173367 
0.0173367 0 0 0 0.0173367 0 0 0 0.0173367 
-0.0275027 0 0 0 -0.0275027 0 0 0 -0.0275027 
-0.0275027 0 0 0 -0.0275027 0 0 0 -0.0275027 
0.00925974 -1.57827e-13 0 -1.57827e-13 0.00925974 0 0 0 0.00925974 
0.00925974 5.8902e-13 0 5.8902e-13 0.00925974 0 0 0 0.00925974 
-0.0200511 1.56909e-13 0 1.56909e-13 -0.0200511 0 0 0 -0.0200511 
-0.0200511 -5.85594e-13 0 -5.85594e-13 -0.0200511 0 0 0 -0.0200511 
40.7451 0 0 0 40.7451 0 0 0 40.7451 
40.7451 0 0 0 40.7451 0 0 0 40.7451 
-28.5387 0 0 0 -28.5387 0 0 0 -28.5387 
-28.5387 0 0 0 -28.5387 0 0 0 -28.5387 
5.92397 -2.97483e-17 0 -2.97483e-17 5.92397 0 0 0 5.92397 
5.92397 1.11022e-16 0 1.11022e-16 5.92397 0 0 0 5.92397 
-4.73599 1.11022e-16 0 1.11022e-16 -4.73599 0 0 0 -4.73599 
-4.73599 -4.14341e-16 0 -4.14341e-16 -4.73599 0 0 0 -4.73599 
1.7489 5.55112e-17 0 5.55112e-17 1.7489 0 0 0 1.7489 
1.7489 -2.0717e-16 0 -2.0717e-16 1.7489 0 0 0 1.7489 
-1.48928 -1.48742e-17 0 -1.48742e-17 -1.48928 0 0 0 -1.48928 
-1.48928 5.55112e-17 0 5.55112e-17 -1.48928 0 0 0 -1.48928 
0.696345 0 0 0 0.696345 0 0 0 0.696345 
0.696345 0 0 0 0.696345 0 0 0 0.696345 
-0.619038 0 0 0 -0.619038 0 0 0 -0.619038 
-0.619038 0 0 0 -0.619038 0 0 0 -0.619038 
0.326412 0 0 0 0.326412 0 0 0 0.326412 
0.326412 0 0 0 0.326412 0 0 0 0.326412 
-0.302031 0 0 0 -0.302031 0 0 0 -0.302031 
-0.302031 0 0 0 -0.302031 0 0 0 -0.302031 
0.168918 0 0 0 0.168918 0 0 0 0.168918 
0.168918 0 0 0 0.168918 0 0 0 0.168918 
-0.163873 0 0 0 -0.163873 0 0 0 -0.163873 
-0.163873 0 0 0 -0.163873 0 0 0 -0.163873 
0.0929547 -8.67362e-19 0 -8.67362e-19 0.0929547 0 0 0 0.0929547 
0.0929547 3.23704e-18 0 3.23704e-18 0.0929547 0 0 0 0.0929547 
-0.0961339 2.32409e-19 0 2.32409e-19 -0.0961339 0 0 0 -0.0961339 
-0.0961339 -8.67362e-19 0 -8.67362e-19 -0.0961339 0 0 0 -0.0961339 
0.0529758 0 0 0 0.0529758 0 0 0 0.0529758 
0.0529758 0 0 0 0.0529758 0 0 0 0.0529758 
-0.060051 0 0 0 -0.060051 0 0 0 -0.060051 
-0.060051 0 0 0 -0.060051 0 0 0 -0.060051 
0.0305457 3.54408e-13 0 3.54408e-13 0.0305457 0 0 0 0.0305457 
0.0305457 -9.49624e-14 0 -9.49624e-14 0.0305457 0 0 0 0.0305457 
-0.0396204 -9.49594e-14 0 -9.49594e-14 -0.0396204 0 0 0 -0.0396204 
-0.0396204 2.54413e-14 0 2.54413e-14 -0.0396204 0 0 0 -0.0396204 
0.0173367 -4.33681e-19 0 -4.33681e-19 0.0173367 0 0 0 0.0173367 
0.0173367 1.16204e-19 0 1.16204e-19 0.0173367 0 0 0 0.0173367 
-0.0275027 1.61852e-18 0 1.61852e-18 -0.0275027 0 0 0 -0.0275027 
-0.0275027 -4.33681e-19 0 -4.33681e-19 -0.0275027 0 0 0 -0.0275027 
0.00925974 -1.64618e-13 0 -1.64618e-13 0.00925974 0 0 0 0.00925974 
0.00925974 4.41092e-14 0 4.41092e-14 0.00925974 0 0 0 0.00925974 
-0.0200511 6.14362e-13 0 6.14362e-13 -0.0200511 0 0 0 -0.0200511 
-0.0200511 -1.64618e-13 0 -1.64618e-13 -0.0200511 0 0 0 -0.0200511 
40.7451 -4.14341e-16 0 -4.14341e-16 40.7451 0 0 0 40.7451 
40.7451 1.11022e-16 0 1.11022e-16 40.7451 0 0 0 40.7451 
-28.5387 1.11022e-16 0 1.11022e-16 -28.5387 0 0 0 -28.5387 
-28.5387 -2.97483e-17 0 -2.97483e-17 -28.5387 0 0 0 -28.5387 
5.92397 0 0 0 5.92397 0 0 0 5.92397 
5.92397 0 0 0 5.92397 0 0 0 5.92397 
-4.73599 0 0 0 -4.73599 0 0 0 -4.73599 
-4.73599 0 0 0 -4.73599 0 0 0 -4.73599 
1.7489 -6.93889e-18 0 -6.93889e-18 1.7489 0 0 0 1.7489 
1.7489 1.85927e-18 0 1.85927e-18 1.7489 0 0 0 1.7489 
-1.48928 2.58963e-17 0 2.58963e-17 -1.48928 0 0 0 -1.48928 
-1.48928 -6.93889e-18 0 -6.93889e-18 -1.48928 0 0 0 -1.48928 
0.696345 0 0 0 0.696345 0 0 0 0.696345 
0.696345 0 0 0 0.696345 0 0 0 0.696345 
-0.619038 0 0 0 -0.619038 0 0 0 -0.619038 
-0.619038 0 0 0 -0.619038 0 0 0 -0.619038 
0.326412 0 0 0 0.326412 0 0 0 0.326412 
0.326412 0 0 0 0.326412 0 0 0 0.326412 
-0.302031 0 0 0 -0.302031 0 0 0 -0.302031 
-0.302031 0 0 0 -0.302031 0 0 0 -0.302031 
0.168918 -1.61852e-18 0 -1.61852e-18 0.168918 0 0 0 0.168918 
0.168918 4.33681e-19 0 4.33681e-19 0.168918 0 0 0 0.168918 
-0.163873 4.33681e-19 0 4.33681e-19 -0.163873 0 0 0 -0.163873 
-0.163873 -1.16204e-19 0 -1.16204e-19 -0.163873 0 0 0 -0.163873 
0.0929547 0 0 0 0.0929547 0 0 0 0.0929547 
0.0929547 0 0 0 0.0929547 0 0 0 0.0929547 
-0.0961339 0 0 0 -0.0961339 0 0 0 -0.0961339 
-0.0961339 0 0 0 -0.0961339 0 0 0 -0.0961339 
0.0529758 0 0 0 0.0529758 0 0 0 0.0529758 
0.0529758 0 0 0 0.0529758 0 0 0 0.0529758 
-0.060051 0 0 0 -0.060051 0 0 0 -0.060051 
-0.060051 0 0 0 -0.060051 0 0 0 -0.060051 
0.0305457 0 0 0 0.0305457 0 0 0 0.0305457 
0.0305457 0 0 0 0.0305457 0 0 0 0.0305457 
-0.0396204 0 0 0 -0.0396204 0 0 0 -0.0396204 
-0.0396204 0 0 0 -0.0396204 0 0 0 -0.0396204 
0.0173367 -1.94055e-13 0 -1.94055e-13 0.0173367 0 0 0 0.0173367 
0.0173367 7.24222e-13 0 7.24222e-13 0.0173367 0 0 0 0.0173367 
-0.0275027 5.19968e-14 0 5.19968e-14 -0.0275027 0 0 0 -0.0275027 
-0.0275027 -1.94055e-13 0 -1.94055e-13 -0.0275027 0 0 0 -0.0275027 
0.00925974 0 0 0 0.00925974 0 0 0 0.00925974 
0.00925974 0 0 0 0.00925974 0 0 0 0.00925974 
-0.0200511 0 0 0 -0.0200511 0 0 0 -0.0200511 
-0.0200511 0 0 0 -0.0200511 0 0 0 -0.0200511 
40.7451 -3.31473e-15 0 -3.31473e-15 40.7451 0 0 0 40.7451 
40.7451 8.88178e-16 0 8.88178e-16 40.7451 0 0 0 40.7451 
-28.5387 8.88178e-16 0 8.88178e-16 -28.5387 0 0 0 -28.5387 
-28.5387 -2.37987e-16 0 -2.37987e-16 -28.5387 0 0 0 -28.5387 
5.92397 0 0 0 5.92397 0 0 0 5.92397 
5.92397 0 0 0 5.92397 0 0 0 5.92397 
-4.73599 0 0 0 -4.73599 0 0 0 -4.73599 
-4.73599 0 0 0 -4.73599 0 0 0 -4.73599 
1.7489 0 0 0 1.7489 0 0 0 1.7489 
1.7489 0 0 0 1.7489 0 0 0 1.7489 
-1.48928 0 0 0 -1.48928 0 0 0 -1.48928 
-1.48928 0 0 0 -1.48928 0 0 0 -1.48928 
0.696345 0 0 0 0.696345 0 0 0 0.696345 
0.696345 0 0 0 0.696345 0 0 0 0.696345 
-0.619038 0 0 0 -0.619038 0 0 0 -0.619038 
-0.619038 0 0 0 -0.619038 0 0 0 -0.619038 
0.326412 0 0 0 0.326412 0 0 0 0.326412 
0.326412 0 0 0 0.326412 0 0 0 0.326412 
-0.302031 0 0 0 -0.302031 0 0 0 -0.302031 
-0.302031 0 0 0 -0.302031 0 0 0 -0.302031 
0.168918 0 0 0 0.168918 0 0 0 0.168918 
0.168918 0 0 0 0.168918 0 0 0 0.168918 
-0.163873 0 0 0 -0.163873 0 0 0 -0.163873 
-0.163873 0 0 0 -0.163873 0 0 0 -0.163873 
0.0929547 0 0 0 0.0929547 0 0 0 0.0929547 
0.0929547 0 0 0 0.0929547 0 0 0 0.0929547 
-0.0961339 0 0 0 -0.0961339 0 0 0 -0.0961339 
-0.0961339 0 0 0 -0.0961339 0 0 0 -0.0961339 
0.0529758 0 0 0 0.0529758 0 0 0 0.0529758 
0.0529758 0 0 0 0.0529758 0 0 0 0.0529758 
-0.060051 0 0 0 -0.060051 0 0 0 -0.060051 
-0.060051 0 0 0 -0.060051 0 0 0 -0.060051 
0.0305457 0 0 0 0.0305457 0 0 0 0.0305457 
0.0305457 0 0 0 0.0305457 0 0 0 0.0305457 
-0.0396204 0 0 0 -0.0396204 0 0 0 -0.0396204 
-0.0396204 0 0 0 -0.0396204 0 0 0 -0.0396204 
0.0173367 4.64466e-14 0 4.64466e-14 0.0173367 0 0 0 0.0173367 
0.0173367 -1.7334e-13 0 -1.7334e-13 0.0173367 0 0 0 0.0173367 
-0.0275027 -1.7334e-13 0 -1.7334e-13 -0.0275027 0 0 0 -0.0275027 
-0.0275027 6.46912e-13 0 6.46912e-13 -0.0275027 0 0 0 -0.0275027 
0.00925974 4.33681e-19 0 4.33681e-19 0.00925974 0 0 0 0.00925974 
0.00925974 -1.16204e-19 0 -1.16204e-19 0.00925974 0 0 0 0.00925974 
-0.0200511 -1.61852e-18 0 -1.61852e-18 -0.0200511 0 0 0 -0.0200511 
-0.0200511 4.33681e-19 0 4.33681e-19 -0.0200511 0 0 0 -0.0200511 
40.7451 0 0 0 40.7451 0 0 0 40.7451 
40.7451 0 0 0 40.7451 0 0 0 40.7451 
-28.5387 0 0 0 -28.5387 0 0 0 -28.5387 
-28.5387 0 0 0 -28.5387 0 0 0 -28.5387 
5.92397 0 0 0 5.92397 0 0 0 5.92397 
5.92397 0 0 0 5.92397 0 0 0 5.92397 
-4.73599 0 0 0 -4.73599 0 0 0 -4.73599 
-4.73599 0 0 0 -4.73599 0 0 0 -4.73599 
1.7489 1.66533e-16 0 1.66533e-16 1.7489 0 0 0 1.7489 
1.7489 -8.32667e-17 0 -8.32667e-17 1.7489 0 0 0 1.7489 
-1.48928 -8.32667e-17 0 -8.32667e-17 -1.48928 0 0 0 -1.48928 
-1.48928 1.66533e-16 0 1.66533e-16 -1.48928 0 0 0 -1.48928 
0.696345 0 0 0 0.696345 0 0 0 0.696345 
0.696345 0 0 0 0.696345 0 0 0 0.696345 
-0.619038 0 0 0 -0.619038 0 0 0 -0.619038 
-0.619038 0 0 0 -0.619038 0 0 0 -0.619038 
0.326412 0 0 0 0.326412 0 0 0 0.326412 
0.326412 0 0 0 0.326412 0 0 0 0.326412 
-0.302031 0 0 0 -0.302031 0 0 0 -0.302031 
-0.302031 0 0 0 -0.302031 0 0 0 -0.302031 
0.168918 0 0 0 0.168918 0 0 0 0.168918 
0.168918 0 0 0 0.168918 0 0 0 0.168918 
-0.163873 0 0 0 -0.163873 0 0 0 -0.163873 
-0.163873 0 0 0 -0.163873 0 0 0 -0.163873 
0.0929547 4.64818e-19 0 4.64818e-19 0.0929547 0 0 0 0.0929547 
0.0929547 -1.73472e-18 0 -1.73472e-18 0.0929547 0 0 0 0.0929547 
-0.0961339 -1.73472e-18 0 -1.73472e-18 -0.0961339 0 0 0 -0.0961339 
-0.0961339 6.47408e-18 0 6.47408e-18 -0.0961339 0 0 0 -0.0961339 
0.0529758 -1.73472e-18 0 -1.73472e-18 0.0529758 0 0 0 0.0529758 
0.0529758 4.64818e-19 0 4.64818e-19 0.0529758 0 0 0 0.0529758 
-0.060051 6.47408e-18 0 6.47408e-18 -0.060051 0 0 0 -0.060051 
-0.060051 -1.73472e-18 0 -1.73472e-18 -0.060051 0 0 0 -0.060051 
0.0305457 0 0 0 0.0305457 0 0 0 0.0305457 
0.0305457 0 0 0 0.0305457 0 0 0 0.0305457 
-0.0396204 0 0 0 -0.0396204 0 0 0 -0.0396204 
-0.0396204 0 0 0 -0.0396204 0 0 0 -0.0396204 
0.0173367 8.0926e-19 0 8.0926e-19 0.0173367 0 0 0 0.0173367 
0.0173367 -2.1684e-19 0 -2.1684e-19 0.0173367 0 0 0 0.0173367 
-0.0275027 -2.1684e-19 0 -2.1684e-19 -0.0275027 0 0 0 -0.0275027 
-0.0275027 5.81022e-20 0 5.81022e-20 -0.0275027 0 0 0 -0.0275027 
0.00925974 0 0 0 0.00925974 0 0 0 0.00925974 
0.00925974 0 0 0 0.00925974 0 0 0 0.00925974 
-0.0200511 0 0 0 -0.0200511 0 0 0 -0.0200511 
-0.0200511 0 0 0 -0.0200511 0 0 0 -0.0200511 
40.7451 0 0 0 40.7451 0 0 0 40.7451 
40.7451 0 0 0 40.7451 0 0 0 40.7451 
-28.5387 0 0 0 -28.5387 0 0 0 -28.5387 
-28.5387 0 0 0 -28.5387 0 0 0 -28.5387 
5.92397 0 0 0 5.92397 0 0 0 5.92397 
5.92397 0 0 0 5.92397 0 0 0 5.92397 
-4.73599 0 0 0 -4.73599 0 0 0 -4.73599 
-4.73599 0 0 0 -4.73599 0 0 0 -4.73599 
1.7489 0 0 0 1.7489 0 0 0 1.7489 
1.7489 0 0 0 1.7489 0 0 0 1.7489 
-1.48928 0 0 0 -1.48928 0 0 0 -1.48928 
-1.48928 0 0 0 -1.48928 0 0 0 -1.48928 
0.696345 0 0 0 0.696345 0 0 0 0.696345 
0.696345 0 0 0 0.696345 0 0 0 0.696345 
-0.619038 0 0 0 -0.619038 0 0 0 -0.619038 
-0.619038 0 0 0 -0.619038 0 0 0 -0.619038 
0.326412 0 0 0 0.326412 0 0 0 0.326412 
0.326412 0 0 0 0.326412 0 0 0 0.326412 
-0.302031 0 0 0 -0.302031 0 0 0 -0.302031 
-0.302031 0 0 0 -0.302031 0 0 0 -0.302031 
0.168918 0 0 0 0.168918 0 0 0 0.168918 
0.168918 0 0 0 0.168918 0 0 0 0.168918 
-0.163873 0 0 0 -0.163873 0 0 0 -0.163873 
-0.163873 0 0 0 -0.163873 0 0 0 -0.163873 
0.0929547 0 0 0 0.0929547 0 0 0 0.0929547 
0.0929547 0 0 0 0.0929547 0 0 0 0.0929547 
-0.0961339 0 0 0 -0.0961339 0 0 0 -0.0961339 
-0.0961339 0 0 0 -0.0961339 0 0 0 -0.0961339 
0.0529758 -8.67362e-19 0 -8.67362e-19 0.0529758 0 0 0 0.0529758 
0.0529758 3.23704e-18 0 3.23704e-18 0.0529758 0 0 0 0.0529758 
-0.060051 2.32409e-19 0 2.32409e-19 -0.060051 0 0 0 -0.060051 
-0.060051 -8.67362e-19 0 -8.67362e-19 -0.060051 0 0 0 -0.060051 
0.0305457 0 0 0 0.0305457 0 0 0 0.0305457 
0.0305457 0 0 0 0.0305457 0 0 0 0.0305457 
-0.0396204 0 0 0 -0.0396204 0 0 0 -0.0396204 
-0.0396204 0 0 0 -0.0396204 0 0 0 -0.0396204 
0.0173367 0 0 0 0.0173367 0 0 0 0.0173367 
0.0173367 0 0 0 0.0173367 0 0 0 0.0173367 
-0.0275027 0 0 0 -0.0275027 0 0 0 -0.0275027 
-0.0275027 0 0 0 -0.0275027 0 0 0 -0.0275027 
0.00925974 0 0 0 0.00925974 0 0 0 0.00925974 
0.00925974 0 0 0 0.00925974 0 0 0 0.00925974 
-0.0200511 0 0 0 -0.0200511 0 0 0 -0.0200511 
-0.0200511 0 0 0 -0.0200511 0 0 0 -0.0200511 
40.7451 0 0 0 40.7451 0 0 0 40.7451 
40.7451 0 0 0 40.7451 0 0 0 40.7451 
-28.5387 0 0 0 -28.5387 0 0 0 -28.5387 
-28.5387 0 0 0 -28.5387 0 0 0 -28.5387 
5.92397 2.0717e-16 0 2.0717e-16 5.92397 0 0 0 5.92397 
5.92397 -5.55112e-17 0 -5.55112e-17 5.92397 0 0 0 5.92397 
-4.73599 -5.55112e-17 0 -5.55112e-17 -4.73599 0 0 0 -4.73599 
-4.73599 1.48742e-17 0 1.48742e-17 -4.73599 0 0 0 -4.73599 
1.7489 0 0 0 1.7489 0 0 0 1.7489 
1.7489 0 0 0 1.7489 0 0 0 1.7489 
-1.48928 0 0 0 -1.48928 0 0 0 -1.48928 
-1.48928 0 0 0 -1.48928 0 0 0 -1.48928 
0.696345 1.38778e-17 0 1.38778e-17 0.696345 0 0 0 0.696345 
0.696345 -5.17926e-17 0 -5.17926e-17 0.696345 0 0 0 0.696345 
-0.619038 -3.71854e-18 0 -3.71854e-18 -0.619038 0 0 0 -0.619038 
-0.619038 1.38778e-17 0 1.38778e-17 -0.619038 0 0 0 -0.619038 
0.326412 0 0 0 0.326412 0 0 0 0.326412 
0.326412 0 0 0 0.326412 0 0 0 0.326412 
-0.302031 0 0 0 -0.302031 0 0 0 -0.302031 
-0.302031 0 0 0 -0.302031 0 0 0 -0.302031 
0.168918 0 0 0 0.168918 0 0 0 0.168918 
0.168918 0 0 0 0.168918 0 0 0 0.168918 
-0.163873 0 0 0 -0.163873 0 0 0 -0.163873 
-0.163873 0 0 0 -0.163873 0 0 0 -0.163873 
0.0929547 0 0 0 0.0929547 0 0 0 0.0929547 
0.0929547 0 0 0 0.0929547 0 0 0 0.0929547 
-0.0961339 0 0 0 -0.0961339 0 0 0 -0.0961339 
-0.0961339 0 0 0 -0.0961339 0 0 0 -0.0961339 
0.0529758 9.29636e-19 0 9.29636e-19 0.0529758 0 0 0 0.0529758 
0.0529758 -3.46945e-18 0 -3.46945e-18 0.0529758 0 0 0 0.0529758 
-0.060051 -3.46945e-18 0 -3.46945e-18 -0.060051 0 0 0 -0.060051 
-0.060051 1.29482e-17 0 1.29482e-17 -0.060051 0 0 0 -0.060051 
0.0305457 0 0 0 0.0305457 0 0 0 0.0305457 
0.0305457 0 0 0 0.0305457 0 0 0 0.0305457 
-0.0396204 0 0 0 -0.0396204 0 0 0 -0.0396204 
-0.0396204 0 0 0 -0.0396204 0 0 0 -0.0396204 
0.0173367 1.65078e-14 0 1.65078e-14 0.0173367 0 0 0 0.0173367 
0.0173367 -6.16078e-14 0 -6.16078e-14 0.0173367 0 0 0 0.0173367 
-0.0275027 -6.16078e-14 0 -6.16078e-14 -0.0275027 0 0 0 -0.0275027 
-0.0275027 2.29924e-13 0 2.29924e-13 -0.0275027 0 0 0 -0.0275027 
0.00925974 1.0842e-19 0 1.0842e-19 0.00925974 0 0 0 0.00925974 
0.00925974 -4.0463e-19 0 -4.0463e-19 0.00925974 0 0 0 0.00925974 
-0.0200511 -2.90511e-20 0 -2.90511e-20 -0.0200511 0 0 0 -0.0200511 
-0.0200511 1.0842e-19 0 1.0842e-19 -0.0200511 0 0 0 -0.0200511 
40.7451 -8.88178e-16 0 -8.88178e-16 40.7451 0 0 0 40.7451 
40.7451 2.37987e-16 0 2.37987e-16 40.7451 0 0 0 40.7451 
-28.5387 3.31473e-15 0 3.31473e-15 -28.5387 0 0 0 -28.5387 
-28.5387 -8.88178e-16 0 -8.88178e-16 -28.5387 0 0 0 -28.5387 
5.92397 0 0 0 5.92397 0 0 0 5.92397 
5.92397 0 0 0 5.92397 0 0 0 5.92397 
-4.73599 0 0 0 -4.73599 0 0 0 -4.73599 
-4.73599 0 0 0 -4.73599 0 0 0 -4.73599 
1.7489 0 0 0 1.7489 0 0 0 1.7489 
1.7489 0 0 0 1.7489 0 0 0 1.7489 
-1.48928 0 0 0 -1.48928 0 0 0 -1.48928 
-1.48928 0 0 0 -1.48928 0 0 0 -1.48928 
0.696345 0 0 0 0.696345 0 0 0 0.696345 
0.696345 0 0 0 0.696345 0 0 0 0.696345 
-0.619038 0 0 0 -0.619038 0 0 0 -0.619038 
-0.619038 0 0 0 -0.619038 0 0 0 -0.619038 
0.326412 0 0 0 0.326412 0 0 0 0.326412 
0.326412 0 0 0 0.326412 0 0 0 0.326412 
-0.302031 0 0 0 -0.302031 0 0 0 -0.302031 
-0.302031 0 0 0 -0.302031 0 0 0 -0.302031 
0.168918 0 0 0 0.168918 0 0 0 0.168918 
0.168918 0 0 0 0.168918 0 0 0 0.168918 
-0.163873 0 0 0 -0.163873 0 0 0 -0.163873 
-0.163873 0 0 0 -0.163873 0 0 0 -0.163873 
0.0929547 -8.67362e-19 0 -8.67362e-19 0.0929547 0 0 0 0.0929547 
0.0929547 2.32409e-19 0 2.32409e-19 0.0929547 0 0 0 0.0929547 
-0.0961339 3.23704e-18 0 3.23704e-18 -0.0961339 0 0 0 -0.0961339 
-0.0961339 -8.67362e-19 0 -8.67362e-19 -0.0961339 0 0 0 -0.0961339 
0.0529758 0 0 0 0.0529758 0 0 0 0.0529758 
0.0529758 0 0 0 0.0529758 0 0 0 0.0529758 
-0.060051 0 0 0 -0.060051 0 0 0 -0.060051 
-0.060051 0 0 0 -0.060051 0 0 0 -0.060051 
0.0305457 -8.67362e-19 0 -8.67362e-19 0.0305457 0 0 0 0.0305457 
0.0305457 2.32409e-19 0 2.32409e-19 0.0305457 0 0 0 0.0305457 
-0.0396204 3.23704e-18 0 3.23704e-18 -0.0396204 0 0 0 -0.0396204 
-0.0396204 -8.67362e-19 0 -8.67362e-19 -0.0396204 0 0 0 -0.0396204 
0.0173367 0 0 0 0.0173367 0 0 0 0.0173367 
0.0173367 0 0 0 0.0173367 0 0 0 0.0173367 
-0.0275027 0 0 0 -0.0275027 0 0 0 -0.0275027 
-0.0275027 0 0 0 -0.0275027 0 0 0 -0.0275027 
0.00925974 1.21009e-13 0 1.21009e-13 0.00925974 0 0 0 0.00925974 
0.00925974 -4.51612e-13 0 -4.51612e-13 0.00925974 0 0 0 0.00925974 
-0.0200511 -1.8898e-13 0 -1.8898e-13 -0.0200511 0 0 0 -0.0200511 
-0.0200511 7.05285e-13 0 7.05285e-13 -0.0200511 0 0 0 -0.0200511 
40.7451 0 0 0 40.7451 0 0 0 40.7451 
40.7451 0 0 0 40.7451 0 0 0 40.7451 
-28.5387 0 0 0 -28.5387 0 0 0 -28.5387 
-28.5387 0 0 0 -28.5387 0 0 0 -28.5387 
5.92397 0 0 0 5.92397 0 0 0 5.92397 
5.92397 0 0 0 5.92397 0 0 0 5.92397 
-4.73599 0 0 0 -4.73599 0 0 0 -4.73599 
-4.73599 0 0 0 -4.73599 0 0 0 -4.73599 
1.7489 3.89112e-17 0 3.89112e-17 1.7489 0 0 0 1.7489 
1.7489 -4.90704e-17 0 -4.90704e-17 1.7489 0 0 0 1.7489 
-1.48928 -1.45219e-16 0 -1.45219e-16 -1.48928 0 0 0 -1.48928 
-1.48928 1.83133e-16 0 1.83133e-16 -1.48928 0 0 0 -1.48928 
0.696345 0 0 0 0.696345 0 0 0 0.696345 
0.696345 0 0 0 0.696345 0 0 0 0.696345 
-0.619038 0 0 0 -0.619038 0 0 0 -0.619038 
-0.619038 0 0 0 -0.619038 0 0 0 -0.619038 
0.326412 -1.24833e-17 0 -1.24833e-17 0.326412 0 0 0 0.326412 
0.326412 -2.06921e-17 0 -2.06921e-17 0.326412 0 0 0 0.326412 
-0.302031 3.3449e-18 0 3.3449e-18 -0.302031 0 0 0 -0.302031 
-0.302031 5.54444e-18 0 5.54444e-18 -0.302031 0 0 0 -0.302031 
0.168918 6.93889e-18 0 6.93889e-18 0.168918 0 0 0 0.168918 
0.168918 -2.58963e-17 0 -2.58963e-17 0.168918 0 0 0 0.168918 
-0.163873 -1.85927e-18 0 -1.85927e-18 -0.163873 0 0 0 -0.163873 
-0.163873 6.93889e-18 0 6.93889e-18 -0.163873 0 0 0 -0.163873 
0.0929547 0 0 0 0.0929547 0 0 0 0.0929547 
0.0929547 0 0 0 0.0929547 0 0 0 0.0929547 
-0.0961339 0 0 0 -0.0961339 0 0 0 -0.0961339 
-0.0961339 0 0 0 -0.0961339 0 0 0 -0.0961339 
0.0529758 0 0 0 0.0529758 0 0 0 0.0529758 
0.0529758 0 0 0 0.0529758 0 0 0 0.0529758 
-0.060051 0 0 0 -0.060051 0 0 0 -0.060051 
-0.060051 0 0 0 -0.060051 0 0 0 -0.060051 
0.0305457 0 0 0 0.0305457 0 0 0 0.0305457 
0.0305457 0 0 0 0.0305457 0 0 0 0.0305457 
-0.0396204 0 0 0 -0.0396204 0 0 0 -0.0396204 
-0.0396204 0 0 0 -0.0396204 0 0 0 -0.0396204 
0.0173367 -1.0261e-18 0 -1.0261e-18 0.0173367 0 0 0 0.0173367 
0.0173367 1.0261e-18 0 1.0261e-18 0.0173367 0 0 0 0.0173367 
-0.0275027 2.74943e-19 0 2.74943e-19 -0.0275027 0 0 0 -0.0275027 
-0.0275027 -2.74943e-19 0 -2.74943e-19 -0.0275027 0 0 0 -0.0275027 
0.00925974 1.77346e-13 0 1.77346e-13 0.00925974 0 0 0 0.00925974 
0.00925974 -4.75197e-14 0 -4.75197e-14 0.00925974 0 0 0 0.00925974 
-0.0200511 -6.61864e-13 0 -6.61864e-13 -0.0200511 0 0 0 -0.0200511 
-0.0200511 1.77346e-13 0 1.77346e-13 -0.0200511 0 0 0 -0.0200511 
40.7451 0 0 0 40.7451 0 0 0 40.7451 
40.7451 0 0 0 40.7451 0 0 0 40.7451 
-28.5387 0 0 0 -28.5387 0 0 0 -28.5387 
-28.5387 0 0 0 -28.5387 0 0 0 -28.5387 
5.92397 1.11022e-16 0 1.11022e-16 5.92397 0 0 0 5.92397 
5.92397 -4.14341e-16 0 -4.14341e-16 5.92397 0 0 0 5.92397 
-4.73599 -2.97483e-17 0 -2.97483e-17 -4.73599 0 0 0 -4.73599 
-4.73599 1.11022e-16 0 1.11022e-16 -4.73599 0 0 0 -4.73599 
1.7489 0 0 0 1.7489 0 0 0 1.7489 
1.7489 0 0 0 1.7489 0 0 0 1.7489 
-1.48928 0 0 0 -1.48928 0 0 0 -1.48928 
-1.48928 0 0 0 -1.48928 0 0 0 -1.48928 
0.696345 -1.38778e-17 0 -1.38778e-17 0.696345 0 0 0 0.696345 
0.696345 5.17926e-17 0 5.17926e-17 0.696345 0 0 0 0.696345 
-0.619038 3.71854e-18 0 3.71854e-18 -0.619038 0 0 0 -0.619038 
-0.619038 -1.38778e-17 0 -1.38778e-17 -0.619038 0 0 0 -0.619038 
0.326412 0 0 0 0.326412 0 0 0 0.326412 
0.326412 0 0 0 0.326412 0 0 0 0.326412 
-0.302031 0 0 0 -0.302031 0 0 0 -0.302031 
-0.302031 0 0 0 -0.302031 0 0 0 -0.302031 
0.168918 1.61852e-18 0 1.61852e-18 0.168918 0 0 0 0.168918 
0.168918 -4.33681e-19 0 -4.33681e-19 0.168918 0 0 0 0.168918 
-0.163873 -4.33681e-19 0 -4.33681e-19 -0.163873 0 0 0 -0.163873 
-0.163873 1.16204e-19 0 1.16204e-19 -0.163873 0 0 0 -0.163873 
0.0929547 0 0 0 0.0929547 0 0 0 0.0929547 
0.0929547 0 0 0 0.0929547 0 0 0 0.0929547 
-0.0961339 0 0 0 -0.0961339 0 0 0 -0.0961339 
-0.0961339 0 0 0 -0.0961339 0 0 0 -0.0961339 
0.0529758 -8.0926e-19 0 -8.0926e-19 0.0529758 0 0 0 0.0529758 
0.0529758 2.1684e-19 0 2.1684e-19 0.0529758 0 0 0 0.0529758 
-0.060051 2.1684e-19 0 2.1684e-19 -0.060051 0 0 0 -0.060051 
-0.060051 -5.81022e-20 0 -5.81022e-20 -0.060051 0 0 0 -0.060051 
0.0305457 0 0 0 0.0305457 0 0 0 0.0305457 
0.0305457 0 0 0 0.0305457 0 0 0 0.0305457 
-0.0396204 0 0 0 -0.0396204 0 0 0 -0.0396204 
-0.0396204 0 0 0 -0.0396204 0 0 0 -0.0396204 
0.0173367 6.40688e-14 0 6.40688e-14 0.0173367 0 0 0 0.0173367 
0.0173367 -1.71687e-14 0 -1.71687e-14 0.0173367 0 0 0 0.0173367 
-0.0275027 -2.39106e-13 0 -2.39106e-13 -0.0275027 0 0 0 -0.0275027 
-0.0275027 6.40688e-14 0 6.40688e-14 -0.0275027 0 0 0 -0.0275027 
0.00925974 0 0 0 0.00925974 0 0 0 0.00925974 
0.00925974 0 0 0 0.00925974 0 0 0 0.00925974 
-0.0200511 0 0 0 -0.0200511 0 0 0 -0.0200511 
-0.0200511 0 0 0 -0.0200511 0 0 0 -0.0200511 
40.7451 0 0 0 40.7451 0 0 0 40.7451 
40.7451 0 0 0 40.7451 0 0 0 40.7451 
-28.5387 0 0 0 -28.5387 0 0 0 -28.5387 
-28.5387 0 0 0 -28.5387 0 0 0 -28.5387 
5.92397 0 0 0 5.92397 0 0 0 5.92397 
5.92397 0 0 0 5.92397 0 0 0 5.92397 
-4.73599 0 0 0 -4.73599 0 0 0 -4.73599 
-4.73599 0 0 0 -4.73599 0 0 0 -4.73599 
1.7489 -7.43708e-18 0 -7.43708e-18 1.7489 0 0 0 1.7489 
1.7489 2.77556e-17 0 2.77556e-17 1.7489 0 0 0 1.7489 
-1.48928 2.77556e-17 0 2.77556e-17 -1.48928 0 0 0 -1.48928 
-1.48928 -1.03585e-16 0 -1.03585e-16 -1.48928 0 0 0 -1.48928 
0.696345 0 0 0 0.696345 0 0 0 0.696345 
0.696345 0 0 0 0.696345 0 0 0 0.696345 
-0.619038 0 0 0 -0.619038 0 0 0 -0.619038 
-0.619038 0 0 0 -0.619038 0 0 0 -0.619038 
0.326412 0 0 0 0.326412 0 0 0 0.326412 
0.326412 0 0 0 0.326412 0 0 0 0.326412 
-0.302031 0 0 0 -0.302031 0 0 0 -0.302031 
-0.302031 0 0 0 -0.302031 0 0 0 -0.302031 
0.168918 0 0 0 0.168918 0 0 0 0.168918 
0.168918 0 0 0 0.168918 0 0 0 0.168918 
-0.163873 0 0 0 -0.163873 0 0 0 -0.163873 
-0.163873 0 0 0 -0.163873 0 0 0 -0.163873 
0.0929547 0 0 0 0.0929547 0 0 0 0.0929547 
0.0929547 0 0 0 0.0929547 0 0 0 0.0929547 
-0.0961339 0 0 0 -0.0961339 0 0 0 -0.0961339 
-0.0961339 0 0 0 -0.0961339 0 0 0 -0.0961339 
0.0529758 0 0 0 0.0529758 0 0 0 0.0529758 
0.0529758 0 0 0 0.0529758 0 0 0 0.0529758 
-0.060051 0 0 0 -0.060051 0 0 0 -0.060051 
-0.060051 0 0 0 -0.060051 0 0 0 -0.060051 
0.0305457 2.0522e-18 0 2.0522e-18 0.0305457 0 0 0 0.0305457 
0.0305457 -5.49885e-19 0 -5.49885e-19 0.0305457 0 0 0 0.0305457 
-0.0396204 -2.0522e-18 0 -2.0522e-18 -0.0396204 0 0 0 -0.0396204 
-0.0396204 5.49885e-19 0 5.49885e-19 -0.0396204 0 0 0 -0.0396204 
0.0173367 -5.2374e-14 0 -5.2374e-14 0.0173367 0 0 0 0.0173367 
0.0173367 1.95463e-13 0 1.95463e-13 0.0173367 0 0 0 0.0173367 
-0.0275027 1.95463e-13 0 1.95463e-13 -0.0275027 0 0 0 -0.0275027 
-0.0275027 -7.29476e-13 0 -7.29476e-13 -0.0275027 0 0 0 -0.0275027 
0.00925974 4.33681e-19 0 4.33681e-19 0.00925974 0 0 0 0.00925974 
0.00925974 -1.16204e-19 0 -1.16204e-19 0.00925974 0 0 0 0.00925974 
-0.0200511 -1.61852e-18 0 -1.61852e-18 -0.0200511 0 0 0 -0.0200511 
-0.0200511 4.33681e-19 0 4.33681e-19 -0.0200511 0 0 0 -0.0200511 
40.7451 0 0 0 40.7451 0 0 0 40.7451 
40.7451 0 0 0 40.7451 0 0 0 40.7451 
-28.5387 0 0 0 -28.5387 0 0 0 -28.5387 
-28.5387 0 0 0 -28.5387 0 0 0 -28.5387 
5.92397 2.22045e-16 0 2.22045e-16 5.92397 0 0 0 5.92397 
5.92397 -8.28682e-16 0 -8.28682e-16 5.92397 0 0 0 5.92397 
-4.73599 -5.94967e-17 0 -5.94967e-17 -4.73599 0 0 0 -4.73599 
-4.73599 2.22045e-16 0 2.22045e-16 -4.73599 0 0 0 -4.73599 
1.7489 -1.48742e-17 0 -1.48742e-17 1.7489 0 0 0 1.7489 
1.7489 5.55112e-17 0 5.55112e-17 1.7489 0 0 0 1.7489 
-1.48928 5.55112e-17 0 5.55112e-17 -1.48928 0 0 0 -1.48928 
-1.48928 -2.0717e-16 0 -2.0717e-16 -1.48928 0 0 0 -1.48928 
0.696345 0 0 0 0.696345 0 0 0 0.696345 
0.696345 0 0 0 0.696345 0 0 0 0.696345 
-0.619038 0 0 0 -0.619038 0 0 0 -0.619038 
-0.619038 0 0 0 -0.619038 0 0 0 -0.619038 
0.326412 0 0 0 0.326412 0 0 0 0.326412 
0.326412 0 0 0 0.326412 0 0 0 0.326412 
-0.302031 0 0 0 -0.302031 0 0 0 -0.302031 
-0.302031 0 0 0 -0.302031 0 0 0 -0.302031 
0.168918 -3.23704e-18 0 -3.23704e-18 0.168918 0 0 0 0.168918 
0.168918 8.67362e-19 0 8.67362e-19 0.168918 0 0 0 0.168918 
-0.163873 8.67362e-19 0 8.67362e-19 -0.163873 0 0 0 -0.163873 
-0.163873 -2.32409e-19 0 -2.32409e-19 -0.163873 0 0 0 -0.163873 
0.0929547 -1.73472e-18 0 -1.73472e-18 0.0929547 0 0 0 0.0929547 
0.0929547 4.64818e-19 0 4.64818e-19 0.0929547 0 0 0 0.0929547 
-0.0961339 6.47408e-18 0 6.47408e-18 -0.0961339 0 0 0 -0.0961339 
-0.0961339 -1.73472e-18 0 -1.73472e-18 -0.0961339 0 0 0 -0.0961339 
0.0529758 0 0 0 0.0529758 0 0 0 0.0529758 
0.0529758 0 0 0 0.0529758 0 0 0 0.0529758 
-0.060051 0 0 0 -0.060051 0 0 0 -0.060051 
-0.060051 0 0 0 -0.060051 0 0 0 -0.060051 
0.0305457 0 0 0 0.0305457 0 0 0 0.0305457 
0.0305457 0 0 0 0.0305457 0 0 0 0.0305457 
-0.0396204 0 0 0 -0.0396204 0 0 0 -0.0396204 
-0.0396204 0 0 0 -0.0396204 0 0 0 -0.0396204 
0.0173367 -9.25464e-19 0 -9.25464e-19 0.0173367 0 0 0 0.0173367 
0.0173367 6.50521e-19 0 6.50521e-19 0.0173367 0 0 0 0.0173367 
-0.0275027 6.50521e-19 0 6.50521e-19 -0.0275027 0 0 0 -0.0275027 
-0.0275027 -1.67662e-18 0 -1.67662e-18 -0.0275027 0 0 0 -0.0275027 
0.00925974 -1.7358e-13 0 -1.7358e-13 0.00925974 0 0 0 0.00925974 
0.00925974 4.65106e-14 0 4.65106e-14 0.00925974 0 0 0 0.00925974 
-0.0200511 6.47809e-13 0 6.47809e-13 -0.0200511 0 0 0 -0.0200511 
-0.0200511 -1.7358e-13 0 -1.7358e-13 -0.0200511 0 0 0 -0.0200511 
40.7451 0 0 0 40.7451 0 0 0 40.7451 
40.7451 0 0 0 40.7451 0 0 0 40.7451 
-28.5387 0 0 0 -28.5387 0 0 0 -28.5387 
-28.5387 0 0 0 -28.5387 0 0 0 -28.5387 
5.92397 0 0 0 5.92397 0 0 0 5.92397 
5.92397 0 0 0 5.92397 0 0 0 5.92397 
-4.73599 0 0 0 -4.73599 0 0 0 -4.73599 
-4.73599 0 0 0 -4.73599 0 0 0 -4.73599 
1.7489 -2.77556e-17 0 -2.77556e-17 1.7489 0 0 0 1.7489 
1.7489 7.43708e-18 0 7.43708e-18 1.7489 0 0 0 1.7489 
-1.48928 1.03585e-16 0 1.03585e-16 -1.48928 0 0 0 -1.48928 
-1.48928 -2.77556e-17 0 -2.77556e-17 -1.48928 0 0 0 -1.48928 
0.696345 0 0 0 0.696345 0 0 0 0.696345 
0.696345 0 0 0 0.696345 0 0 0 0.696345 
-0.619038 0 0 0 -0.619038 0 0 0 -0.619038 
-0.619038 0 0 0 -0.619038 0 0 0 -0.619038 
0.326412 0 0 0 0.326412 0 0 0 0.326412 
0.326412 0 0 0 0.326412 0 0 0 0.326412 
-0.302031 0 0 0 -0.302031 0 0 0 -0.302031 
-0.302031 0 0 0 -0.302031 0 0 0 -0.302031 
0.168918 0 0 0 0.168918 0 0 0 0.168918 
0.168918 0 0 0 0.168918 0 0 0 0.168918 
-0.163873 0 0 0 -0.163873 0 0 0 -0.163873 
-0.163873 0 0 0 -0.163873 0 0 0 -0.163873 
0.0929547 4.73935e-18 0 4.73935e-18 0.0929547 0 0 0 0.0929547 
0.0929547 -1.26991e-18 0 -1.26991e-18 0.0929547 0 0 0 0.0929547 
-0.0961339 4.73935e-18 0 4.73935e-18 -0.0961339 0 0 0 -0.0961339 
-0.0961339 -1.26991e-18 0 -1.26991e-18 -0.0961339 0 0 0 -0.0961339 
0.0529758 0 0 0 0.0529758 0 0 0 0.0529758 
0.0529758 0 0 0 0.0529758 0 0 0 0.0529758 
-0.060051 0 0 0 -0.060051 0 0 0 -0.060051 
-0.060051 0 0 0 -0.060051 0 0 0 -0.060051 
0.0305457 -1.16204e-19 0 -1.16204e-19 0.0305457 0 0 0 0.0305457 
0.0305457 4.33681e-19 0 4.33681e-19 0.0305457 0 0 0 0.0305457 
-0.0396204 4.33681e-19 0 4.33681e-19 -0.0396204 0 0 0 -0.0396204 
-0.0396204 -1.61852e-18 0 -1.61852e-18 -0.0396204 0 0 0 -0.0396204 
0.0173367 0 0 0 0.0173367 0 0 0 0.0173367 
0.0173367 0 0 0 0.0173367 0 0 0 0.0173367 
-0.0275027 0 0 0 -0.0275027 0 0 0 -0.0275027 
-0.0275027 0 0 0 -0.0275027 0 0 0 -0.0275027 
0.00925974 0 0 0 0.00925974 0 0 0 0.00925974 
0.00925974 0 0 0 0.00925974 0 0 0 0.00925974 
-0.0200511 0 0 0 -0.0200511 0 0 0 -0.0200511 
-0.0200511 0 0 0 -0.0200511 0 0 0 -0.0200511 
40.7451 -6.62945e-15 0 -6.62945e-15 40.7451 0 0 0 40.7451 
40.7451 1.77636e-15 0 1.77636e-15 40.7451 0 0 0 40.7451 
-28.5387 1.77636e-15 0 1.77636e-15 -28.5387 0 0 0 -28.5387 
-28.5387 -4.75973e-16 0 -4.75973e-16 -28.5387 0 0 0 -28.5387 
5.92397 0 0 0 5.92397 0 0 0 5.92397 
5.92397 0 0 0 5.92397 0 0 0 5.92397 
-4.73599 0 0 0 -4.73599 0 0 0 -4.73599 
-4.73599 0 0 0 -4.73599 0 0 0 -4.73599 
1.7489 0 0 0 1.7489 0 0 0 1.7489 
1.7489 0 0 0 1.7489 0 0 0 1.7489 
-1.48928 0 0 0 -1.48928 0 0 0 -1.48928 
-1.48928 0 0 0 -1.48928 0 0 0 -1.48928 
0.696345 1.85927e-18 0 1.85927e-18 0.696345 0 0 0 0.696345 
0.696345 -6.93889e-18 0 -6.93889e-18 0.696345 0 0 0 0.696345 
-0.619038 -6.93889e-18 0 -6.93889e-18 -0.619038 0 0 0 -0.619038 
-0.619038 2.58963e-17 0 2.58963e-17 -0.619038 0 0 0 -0.619038 
0.326412 0 0 0 0.326412 0 0 0 0.326412 
0.326412 0 0 0 0.326412 0 0 0 0.326412 
-0.302031 0 0 0 -0.302031 0 0 0 -0.302031 
-0.302031 0 0 0 -0.302031 0 0 0 -0.302031 
0.168918 1.29482e-17 0 1.29482e-17 0.168918 0 0 0 0.168918 
0.168918 -3.46945e-18 0 -3.46945e-18 0.168918 0 0 0 0.168918 
-0.163873 -3.46945e-18 0 -3.46945e-18 -0.163873 0 0 0 -0.163873 
-0.163873 9.29636e-19 0 9.29636e-19 -0.163873 0 0 0 -0.163873 
0.0929547 0 0 0 0.0929547 0 0 0 0.0929547 
0.0929547 0 0 0 0.0929547 0 0 0 0.0929547 
-0.0961339 0 0 0 -0.0961339 0 0 0 -0.0961339 
-0.0961339 0 0 0 -0.0961339 0 0 0 -0.0961339 
0.0529758 -2.36968e-18 0 -2.36968e-18 0.0529758 0 0 0 0.0529758 
0.0529758 -2.36968e-18 0 -2.36968e-18 0.0529758 0 0 0 0.0529758 
-0.060051 6.34953e-19 0 6.34953e-19 -0.060051 0 0 0 -0.060051 
-0.060051 6.34953e-19 0 6.34953e-19 -0.060051 0 0 0 -0.060051 
0.0305457 4.97176e-18 0 4.97176e-18 0.0305457 0 0 0 0.0305457 
0.0305457 -7.34144e-18 0 -7.34144e-18 0.0305457 0 0 0 0.0305457 
-0.0396204 -1.33218e-18 0 -1.33218e-18 -0.0396204 0 0 0 -0.0396204 
-0.0396204 1.96713e-18 0 1.96713e-18 -0.0396204 0 0 0 -0.0396204 
0.0173367 -3.44953e-14 0 -3.44953e-14 0.0173367 0 0 0 0.0173367 
0.0173367 1.28738e-13 0 1.28738e-13 0.0173367 0 0 0 0.0173367 
-0.0275027 1.28738e-13 0 1.28738e-13 -0.0275027 0 0 0 -0.0275027 
-0.0275027 -4.80457e-13 0 -4.80457e-13 -0.0275027 0 0 0 -0.0275027 
0.00925974 4.33681e-19 0 4.33681e-19 0.00925974 0 0 0 0.00925974 
0.00925974 -1.16204e-19 0 -1.16204e-19 0.00925974 0 0 0 0.00925974 
-0.0200511 -1.61852e-18 0 -1.61852e-18 -0.0200511 0 0 0 -0.0200511 
-0.0200511 4.33681e-19 0 4.33681e-19 -0.0200511 0 0 0 -0.0200511 
40.7451 1.71686e-15 0 1.71686e-15 40.7451 0 0 0 40.7451 
40.7451 -3.53677e-15 0 -3.53677e-15 40.7451 0 0 0 40.7451 
-28.5387 -4.60031e-16 0 -4.60031e-16 -28.5387 0 0 0 -28.5387 
-28.5387 9.47675e-16 0 9.47675e-16 -28.5387 0 0 0 -28.5387 
5.92397 0 0 0 5.92397 0 0 0 5.92397 
5.92397 0 0 0 5.92397 0 0 0 5.92397 
-4.73599 0 0 0 -4.73599 0 0 0 -4.73599 
-4.73599 0 0 0 -4.73599 0 0 0 -4.73599 
1.7489 0 0 0 1.7489 0 0 0 1.7489 
1.7489 0 0 0 1.7489 0 0 0 1.7489 
-1.48928 0 0 0 -1.48928 0 0 0 -1.48928 
-1.48928 0 0 0 -1.48928 0 0 0 -1.48928 
0.696345 6.93889e-18 0 6.93889e-18 0.696345 0 0 0 0.696345 
0.696345 -1.85927e-18 0 -1.85927e-18 0.696345 0 0 0 0.696345 
-0.619038 -2.58963e-17 0 -2.58963e-17 -0.619038 0 0 0 -0.619038 
-0.619038 6.93889e-18 0 6.93889e-18 -0.619038 0 0 0 -0.619038 
0.326412 -3.79148e-17 0 -3.79148e-17 0.326412 0 0 0 0.326412 
0.326412 1.01592e-17 0 1.01592e-17 0.326412 0 0 0 0.326412 
-0.302031 -3.79148e-17 0 -3.79148e-17 -0.302031 0 0 0 -0.302031 
-0.302031 1.01592e-17 0 1.01592e-17 -0.302031 0 0 0 -0.302031 
0.168918 0 0 0 0.168918 0 0 0 0.168918 
0.168918 1.20185e-17 0 1.20185e-17 0.168918 0 0 0 0.168918 
-0.163873 -1.20185e-17 0 -1.20185e-17 -0.163873 0 0 0 -0.163873 
-0.163873 0 0 0 -0.163873 0 0 0 -0.163873 
0.0929547 -5.81022e-20 0 -5.81022e-20 0.0929547 0 0 0 0.0929547 
0.0929547 2.1684e-19 0 2.1684e-19 0.0929547 0 0 0 0.0929547 
-0.0961339 2.1684e-19 0 2.1684e-19 -0.0961339 0 0 0 -0.0961339 
-0.0961339 -8.0926e-19 0 -8.0926e-19 -0.0961339 0 0 0 -0.0961339 
0.0529758 0 0 0 0.0529758 0 0 0 0.0529758 
0.0529758 0 0 0 0.0529758 0 0 0 0.0529758 
-0.060051 0 0 0 -0.060051 0 0 0 -0.060051 
-0.060051 0 0 0 -0.060051 0 0 0 -0.060051 
0.0305457 0 0 0 0.0305457 0 0 0 0.0305457 
0.0305457 0 0 0 0.0305457 0 0 0 0.0305457 
-0.0396204 0 0 0 -0.0396204 0 0 0 -0.0396204 
-0.0396204 0 0 0 -0.0396204 0 0 0 -0.0396204 
0.0173367 0 0 0 0.0173367 0 0 0 0.0173367 
0.0173367 0 0 0 0.0173367 0 0 0 0.0173367 
-0.0275027 0 0 0 -0.0275027 0 0 0 -0.0275027 
-0.0275027 0 0 0 -0.0275027 0 0 0 -0.0275027 
0.00925974 -1.01173e-13 0 -1.01173e-13 0.00925974 0 0 0 0.00925974 
0.00925974 3.77584e-13 0 3.77584e-13 0.00925974 0 0 0 0.00925974 
-0.0200511 2.12075e-13 0 2.12075e-13 -0.0200511 0 0 0 -0.0200511 
-0.0200511 -7.91476e-13 0 -7.91476e-13 -0.0200511 0 0 0 -0.0200511 
40.7451 0 0 0 40.7451 0 0 0 40.7451 
40.7451 0 0 0 40.7451 0 0 0 40.7451 
-28.5387 0 0 0 -28.5387 0 0 0 -28.5387 
-28.5387 0 0 0 -28.5387 0 0 0 -28.5387 
5.92397 -1.11022e-16 0 -1.11022e-16 5.92397 0 0 0 5.92397 
5.92397 4.14341e-16 0 4.14341e-16 5.92397 0 0 0 5.92397 
-4.73599 2.97483e-17 0 2.97483e-17 -4.73599 0 0 0 -4.73599 
-4.73599 -1.11022e-16 0 -1.11022e-16 -4.73599 0 0 0 -4.73599 
1.7489 -2.0717e-16 0 -2.0717e-16 1.7489 0 0 0 1.7489 
1.7489 5.55112e-17 0 5.55112e-17 1.7489 0 0 0 1.7489 
-1.48928 5.55112e-17 0 5.55112e-17 -1.48928 0 0 0 -1.48928 
-1.48928 -1.48742e-17 0 -1.48742e-17 -1.48928 0 0 0 -1.48928 
0.696345 0 0 0 0.696345 0 0 0 0.696345 
0.696345 0 0 0 0.696345 0 0 0 0.696345 
-0.619038 0 0 0 -0.619038 0 0 0 -0.619038 
-0.619038 0 0 0 -0.619038 0 0 0 -0.619038 
0.326412 0 0 0 0.326412 0 0 0 0.326412 
0.326412 0 0 0 0.326412 0 0 0 0.326412 
-0.302031 0 0 0 -0.302031 0 0 0 -0.302031 
-0.302031 0 0 0 -0.302031 0 0 0 -0.302031 
0.168918 0 0 0 0.168918 0 0 0 0.168918 
0.168918 0 0 0 0.168918 0 0 0 0.168918 
-0.163873 0 0 0 -0.163873 0 0 0 -0.163873 
-0.163873 0 0 0 -0.163873 0 0 0 -0.163873 
0.0929547 0 0 0 0.0929547 0 0 0 0.0929547 
0.0929547 0 0 0 0.0929547 0 0 0 0.0929547 
-0.0961339 0 0 0 -0.0961339 0 0 0 -0.0961339 
-0.0961339 0 0 0 -0.0961339 0 0 0 -0.0961339 
0.0529758 1.16204e-19 0 1.16204e-19 0.0529758 0 0 0 0.0529758 
0.0529758 -4.33681e-19 0 -4.33681e-19 0.0529758 0 0 0 0.0529758 
-0.060051 -4.33681e-19 0 -4.33681e-19 -0.060051 0 0 0 -0.060051 
-0.060051 1.61852e-18 0 1.61852e-18 -0.060051 0 0 0 -0.060051 
0.0305457 0 0 0 0.0305457 0 0 0 0.0305457 
0.0305457 0 0 0 0.0305457 0 0 0 0.0305457 
-0.0396204 0 0 0 -0.0396204 0 0 0 -0.0396204 
-0.0396204 0 0 0 -0.0396204 0 0 0 -0.0396204 
0.0173367 0 0 0 0.0173367 0 0 0 0.0173367 
0.0173367 0 0 0 0.0173367 0 0 0 0.0173367 
-0.0275027 0 0 0 -0.0275027 0 0 0 -0.0275027 
-0.0275027 0 0 0 -0.0275027 0 0 0 -0.0275027 
0.00925974 -1.59601e-13 0 -1.59601e-13 0.00925974 0 0 0 0.00925974 
0.00925974 4.27651e-14 0 4.27651e-14 0.00925974 0 0 0 0.00925974 
-0.0200511 5.95641e-13 0 5.95641e-13 -0.0200511 0 0 0 -0.0200511 
-0.0200511 -1.59601e-13 0 -1.59601e-13 -0.0200511 0 0 0 -0.0200511 
40.7451 0 0 0 40.7451 0 0 0 40.7451 
40.7451 0 0 0 40.7451 0 0 0 40.7451 
-28.5387 0 0 0 -28.5387 0 0 0 -28.5387 
-28.5387 0 0 0 -28.5387 0 0 0 -28.5387 
5.92397 0 0 0 5.92397 0 0 0 5.92397 
5.92397 0 0 0 5.92397 0 0 0 5.92397 
-4.73599 0 0 0 -4.73599 0 0 0 -4.73599 
-4.73599 0 0 0 -4.73599 0 0 0 -4.73599 
1.7489 0 0 0 1.7489 0 0 0 1.7489 
1.7489 0 0 0 1.7489 0 0 0 1.7489 
-1.48928 0 0 0 -1.48928 0 0 0 -1.48928 
-1.48928 0 0 0 -1.48928 0 0 0 -1.48928 
0.696345 0 0 0 0.696345 0 0 0 0.696345 
0.696345 0 0 0 0.696345 0 0 0 0.696345 
-0.619038 0 0 0 -0.619038 0 0 0 -0.619038 
-0.619038 0 0 0 -0.619038 0 0 0 -0.619038 
0.326412 0 0 0 0.326412 0 0 0 0.326412 
0.326412 0 0 0 0.326412 0 0 0 0.326412 
-0.302031 0 0 0 -0.302031 0 0 0 -0.302031 
-0.302031 0 0 0 -0.302031 0 0 0 -0.302031 
0.168918 0 0 0 0.168918 0 0 0 0.168918 
0.168918 0 0 0 0.168918 0 0 0 0.168918 
-0.163873 0 0 0 -0.163873 0 0 0 -0.163873 
-0.163873 0 0 0 -0.163873 0 0 0 -0.163873 
0.0929547 -2.13727e-18 0 -2.13727e-18 0.0929547 0 0 0 0.0929547 
0.0929547 -3.23704e-18 0 -3.23704e-18 0.0929547 0 0 0 0.0929547 
-0.0961339 -2.32409e-19 0 -2.32409e-19 -0.0961339 0 0 0 -0.0961339 
-0.0961339 3.87199e-18 0 3.87199e-18 -0.0961339 0 0 0 -0.0961339 
0.0529758 8.67362e-19 0 8.67362e-19 0.0529758 0 0 0 0.0529758 
0.0529758 -3.23704e-18 0 -3.23704e-18 0.0529758 0 0 0 0.0529758 
-0.060051 -2.32409e-19 0 -2.32409e-19 -0.060051 0 0 0 -0.060051 
-0.060051 8.67362e-19 0 8.67362e-19 -0.060051 0 0 0 -0.060051 
0.0305457 -2.1684e-19 0 -2.1684e-19 0.0305457 0 0 0 0.0305457 
0.0305457 8.0926e-19 0 8.0926e-19 0.0305457 0 0 0 0.0305457 
-0.0396204 5.81022e-20 0 5.81022e-20 -0.0396204 0 0 0 -0.0396204 
-0.0396204 -2.1684e-19 0 -2.1684e-19 -0.0396204 0 0 0 -0.0396204 
0.0173367 -5.2816e-14 0 -5.2816e-14 0.0173367 0 0 0 0.0173367 
0.0173367 1.4152e-14 0 1.4152e-14 0.0173367 0 0 0 0.0173367 
-0.0275027 1.97112e-13 0 1.97112e-13 -0.0275027 0 0 0 -0.0275027 
-0.0275027 -5.2816e-14 0 -5.2816e-14 -0.0275027 0 0 0 -0.0275027 
0.00925974 0 0 0 0.00925974 0 0 0 0.00925974 
0.00925974 0 0 0 0.00925974 0 0 0 0.00925974 
-0.0200511 0 0 0 -0.0200511 0 0 0 -0.0200511 
-0.0200511 0 0 0 -0.0200511 0 0 0 -0.0200511 
40.7451 0 0 0 40.7451 0 0 0 40.7451 
40.7451 0 0 0 40.7451 0 0 0 40.7451 
-28.5387 0 0 0 -28.5387 0 0 0 -28.5387 
-28.5387 0 0 0 -28.5387 0 0 0 -28.5387 
5.92397 0 0 0 5.92397 0 0 0 5.92397 
5.92397 0 0 0 5.92397 0 0 0 5.92397 
-4.73599 0 0 0 -4.73599 0 0 0 -4.73599 
-4.73599 0 0 0 -4.73599 0 0 0 -4.73599 
1.7489 0 0 0 1.7489 0 0 0 1.7489 
1.7489 0 0 0 1.7489 0 0 0 1.7489 
-1.48928 0 0 0 -1.48928 0 0 0 -1.48928 
-1.48928 0 0 0 -1.48928 0 0 0 -1.48928 
0.696345 7.43708e-18 0 7.43708e-18 0.696345 0 0 0 0.696345 
0.696345 -2.77556e-17 0 -2.77556e-17 0.696345 0 0 0 0.696345 
-0.619038 -2.77556e-17 0 -2.77556e-17 -0.619038 0 0 0 -0.619038 
-0.619038 1.03585e-16 0 1.03585e-16 -0.619038 0 0 0 -0.619038 
0.326412 0 0 0 0.326412 0 0 0 0.326412 
0.326412 0 0 0 0.326412 0 0 0 0.326412 
-0.302031 0 0 0 -0.302031 0 0 0 -0.302031 
-0.302031 0 0 0 -0.302031 0 0 0 -0.302031 
0.168918 0 0 0 0.168918 0 0 0 0.168918 
0.168918 0 0 0 0.168918 0 0 0 0.168918 
-0.163873 0 0 0 -0.163873 0 0 0 -0.163873 
-0.163873 0 0 0 -0.163873 0 0 0 -0.163873 
0.0929547 0 0 0 0.0929547 0 0 0 0.0929547 
0.0929547 0 0 0 0.0929547 0 0 0 0.0929547 
-0.0961339 0 0 0 -0.0961339 0 0 0 -0.0961339 
-0.0961339 0 0 0 -0.0961339 0 0 0 -0.0961339 
0.0529758 8.67362e-19 0 8.67362e-19 0.0529758 0 0 0 0.0529758 
0.0529758 -2.32409e-19 0 -2.32409e-19 0.0529758 0 0 0 0.0529758 
-0.060051 -3.23704e-18 0 -3.23704e-18 -0.060051 0 0 0 -0.060051 
-0.060051 8.67362e-19 0 8.67362e-19 -0.060051 0 0 0 -0.060051 
0.0305457 7.51157e-19 0 7.51157e-19 0.0305457 0 0 0 0.0305457 
0.0305457 -2.01272e-19 0 -2.01272e-19 0.0305457 0 0 0 0.0305457 
-0.0396204 2.80336e-18 0 2.80336e-18 -0.0396204 0 0 0 -0.0396204 
-0.0396204 -7.51157e-19 0 -7.51157e-19 -0.0396204 0 0 0 -0.0396204 
0.0173367 4.8735e-14 0 4.8735e-14 0.0173367 0 0 0 0.0173367 
0.0173367 -1.81883e-13 0 -1.81883e-13 0.0173367 0 0 0 0.0173367 
-0.0275027 -1.81883e-13 0 -1.81883e-13 -0.0275027 0 0 0 -0.0275027 
-0.0275027 6.78797e-13 0 6.78797e-13 -0.0275027 0 0 0 -0.0275027 
0.00925974 0 0 0 0.00925974 0 0 0 0.00925974 
0.00925974 0 0 0 0.00925974 0 0 0 0.00925974 
-0.0200511 0 0 0 -0.0200511 0 0 0 -0.0200511 
-0.0200511 0 0 0 -0.0200511 0 0 0 -0.0200511 
40.7451 0 0 0 40.7451 0 0 0 40.7451 
40.7451 0 0 0 40.7451 0 0 0 40.7451 
-28.5387 0 0 0 -28.5387 0 0 0 -28.5387 
-28.5387 0 0 0 -28.5387 0 0 0 -28.5387 
5.92397 0 0 0 5.92397 0 0 0 5.92397 
5.92397 0 0 0 5.92397 0 0 0 5.92397 
-4.73599 0 0 0 -4.73599 0 0 0 -4.73599 
-4.73599 0 0 0 -4.73599 0 0 0 -4.73599 
1.7489 0 0 0 1.7489 0 0 0 1.7489 
1.7489 0 0 0 1.7489 0 0 0 1.7489 
-1.48928 0 0 0 -1.48928 0 0 0 -1.48928 
-1.48928 0 0 0 -1.48928 0 0 0 -1.48928 
0.696345 0 0 0 0.696345 0 0 0 0.696345 
0.696345 0 0 0 0.696345 0 0 0 0.696345 
-0.619038 0 0 0 -0.619038 0 0 0 -0.619038 
-0.619038 0 0 0 -0.619038 0 0 0 -0.619038 
0.326412 0 0 0 0.326412 0 0 0 0.326412 
0.326412 0 0 0 0.326412 0 0 0 0.326412 
-0.302031 0 0 0 -0.302031 0 0 0 -0.302031 
-0.302031 0 0 0 -0.302031 0 0 0 -0.302031 
0.168918 1.73472e-18 0 1.73472e-18 0.168918 0 0 0 0.168918 
0.168918 -6.47408e-18 0 -6.47408e-18 0.168918 0 0 0 0.168918 
-0.163873 -4.64818e-19 0 -4.64818e-19 -0.163873 0 0 0 -0.163873 
-0.163873 1.73472e-18 0 1.73472e-18 -0.163873 0 0 0 -0.163873 
0.0929547 0 0 0 0.0929547 0 0 0 0.0929547 
0.0929547 0 0 0 0.0929547 0 0 0 0.0929547 
-0.0961339 0 0 0 -0.0961339 0 0 0 -0.0961339 
-0.0961339 0 0 0 -0.0961339 0 0 0 -0.0961339 
0.0529758 0 0 0 0.0529758 0 0 0 0.0529758 
0.0529758 0 0 0 0.0529758 0 0 0 0.0529758 
-0.060051 0 0 0 -0.060051 0 0 0 -0.060051 
-0.060051 0 0 0 -0.060051 0 0 0 -0.060051 
0.0305457 -3.23704e-18 0 -3.23704e-18 0.0305457 0 0 0 0.0305457 
0.0305457 8.67362e-19 0 8.67362e-19 0.0305457 0 0 0 0.0305457 
-0.0396204 8.67362e-19 0 8.67362e-19 -0.0396204 0 0 0 -0.0396204 
-0.0396204 -2.32409e-19 0 -2.32409e-19 -0.0396204 0 0 0 -0.0396204 
0.0173367 -2.1684e-19 0 -2.1684e-19 0.0173367 0 0 0 0.0173367 
0.0173367 8.0926e-19 0 8.0926e-19 0.0173367 0 0 0 0.0173367 
-0.0275027 5.81022e-20 0 5.81022e-20 -0.0275027 0 0 0 -0.0275027 
-0.0275027 -2.1684e-19 0 -2.1684e-19 -0.0275027 0 0 0 -0.0275027 
0.00925974 2.2225e-13 0 2.2225e-13 0.00925974 0 0 0 0.00925974 
0.00925974 -5.95516e-14 0 -5.95516e-14 0.00925974 0 0 0 0.00925974 
-0.0200511 -8.29447e-13 0 -8.29447e-13 -0.0200511 0 0 0 -0.0200511 
-0.0200511 2.2225e-13 0 2.2225e-13 -0.0200511 0 0 0 -0.0200511 
40.7451 0 0 0 40.7451 0 0 0 40.7451 
40.7451 0 0 0 40.7451 0 0 0 40.7451 
-28.5387 0 0 0 -28.5387 0 0 0 -28.5387 
-28.5387 0 0 0 -28.5387 0 0 0 -28.5387 
5.92397 8.28682e-16 0 8.28682e-16 5.92397 0 0 0 5.92397 
5.92397 -2.22045e-16 0 -2.22045e-16 5.92397 0 0 0 5.92397 
-4.73599 -2.22045e-16 0 -2.22045e-16 -4.73599 0 0 0 -4.73599 
-4.73599 5.94967e-17 0 5.94967e-17 -4.73599 0 0 0 -4.73599 
1.7489 -2.77556e-17 0 -2.77556e-17 1.7489 0 0 0 1.7489 
1.7489 1.03585e-16 0 1.03585e-16 1.7489 0 0 0 1.7489 
-1.48928 7.43708e-18 0 7.43708e-18 -1.48928 0 0 0 -1.48928 
-1.48928 -2.77556e-17 0 -2.77556e-17 -1.48928 0 0 0 -1.48928 
0.696345 -1.38778e-17 0 -1.38778e-17 0.696345 0 0 0 0.696345 
0.696345 5.17926e-17 0 5.17926e-17 0.696345 0 0 0 0.696345 
-0.619038 3.71854e-18 0 3.71854e-18 -0.619038 0 0 0 -0.619038 
-0.619038 -1.38778e-17 0 -1.38778e-17 -0.619038 0 0 0 -0.619038 
0.326412 0 0 0 0.326412 0 0 0 0.326412 
0.326412 0 0 0 0.326412 0 0 0 0.326412 
-0.302031 0 0 0 -0.302031 0 0 0 -0.302031 
-0.302031 0 0 0 -0.302031 0 0 0 -0.302031 
0.168918 -6.93889e-18 0 -6.93889e-18 0.168918 0 0 0 0.168918 
0.168918 1.85927e-18 0 1.85927e-18 0.168918 0 0 0 0.168918 
-0.163873 2.58963e-17 0 2.58963e-17 -0.163873 0 0 0 -0.163873 
-0.163873 -6.93889e-18 0 -6.93889e-18 -0.163873 0 0 0 -0.163873 
0.0929547 0 0 0 0.0929547 0 0 0 0.0929547 
0.0929547 0 0 0 0.0929547 0 0 0 0.0929547 
-0.0961339 0 0 0 -0.0961339 0 0 0 -0.0961339 
-0.0961339 0 0 0 -0.0961339 0 0 0 -0.0961339 
0.0529758 4.64818e-19 0 4.64818e-19 0.0529758 0 0 0 0.0529758 
0.0529758 -1.73472e-18 0 -1.73472e-18 0.0529758 0 0 0 0.0529758 
-0.060051 -1.73472e-18 0 -1.73472e-18 -0.060051 0 0 0 -0.060051 
-0.060051 6.47408e-18 0 6.47408e-18 -0.060051 0 0 0 -0.060051 
0.0305457 4.33681e-19 0 4.33681e-19 0.0305457 0 0 0 0.0305457 
0.0305457 -1.16204e-19 0 -1.16204e-19 0.0305457 0 0 0 0.0305457 
-0.0396204 -1.61852e-18 0 -1.61852e-18 -0.0396204 0 0 0 -0.0396204 
-0.0396204 4.33681e-19 0 4.33681e-19 -0.0396204 0 0 0 -0.0396204 
0.0173367 -2.1684e-19 0 -2.1684e-19 0.0173367 0 0 0 0.0173367 
0.0173367 8.0926e-19 0 8.0926e-19 0.0173367 0 0 0 0.0173367 
-0.0275027 5.81022e-20 0 5.81022e-20 -0.0275027 0 0 0 -0.0275027 
-0.0275027 -2.1684e-19 0 -2.1684e-19 -0.0275027 0 0 0 -0.0275027 
0.00925974 0 0 0 0.00925974 0 0 0 0.00925974 
0.00925974 0 0 0 0.00925974 0 0 0 0.00925974 
-0.0200511 0 0 0 -0.0200511 0 0 0 -0.0200511 
-0.0200511 0 0 0 -0.0200511 0 0 0 -0.0200511 
40.7451 0 0 0 40.7451 0 0 0 40.7451 
40.7451 0 0 0 40.7451 0 0 0 40.7451 
-28.5387 0 0 0 -28.5387 0 0 0 -28.5387 
-28.5387 0 0 0 -28.5387 0 0 0 -28.5387 
5.92397 0 0 0 5.92397 0 0 0 5.92397 
5.92397 0 0 0 5.92397 0 0 0 5.92397 
-4.73599 0 0 0 -4.73599 0 0 0 -4.73599 
-4.73599 0 0 0 -4.73599 0 0 0 -4.73599 
1.7489 0 0 0 1.7489 0 0 0 1.7489 
1.7489 0 0 0 1.7489 0 0 0 1.7489 
-1.48928 0 0 0 -1.48928 0 0 0 -1.48928 
-1.48928 0 0 0 -1.48928 0 0 0 -1.48928 
0.696345 1.38778e-17 0 1.38778e-17 0.696345 0 0 0 0.696345 
0.696345 -5.17926e-17 0 -5.17926e-17 0.696345 0 0 0 0.696345 
-0.619038 -3.71854e-18 0 -3.71854e-18 -0.619038 0 0 0 -0.619038 
-0.619038 1.38778e-17 0 1.38778e-17 -0.619038 0 0 0 -0.619038 
0.326412 0 0 0 0.326412 0 0 0 0.326412 
0.326412 0 0 0 0.326412 0 0 0 0.326412 
-0.302031 0 0 0 -0.302031 0 0 0 -0.302031 
-0.302031 0 0 0 -0.302031 0 0 0 -0.302031 
0.168918 0 0 0 0.168918 0 0 0 0.168918 
0.168918 0 0 0 0.168918 0 0 0 0.168918 
-0.163873 0 0 0 -0.163873 0 0 0 -0.163873 
-0.163873 0 0 0 -0.163873 0 0 0 -0.163873 
0.0929547 -3.46945e-18 0 -3.46945e-18 0.0929547 0 0 0 0.0929547 
0.0929547 1.29482e-17 0 1.29482e-17 0.0929547 0 0 0 0.0929547 
-0.0961339 9.29636e-19 0 9.29636e-19 -0.0961339 0 0 0 -0.0961339 
-0.0961339 -3.46945e-18 0 -3.46945e-18 -0.0961339 0 0 0 -0.0961339 
0.0529758 0 0 0 0.0529758 0 0 0 0.0529758 
0.0529758 0 0 0 0.0529758 0 0 0 0.0529758 
-0.060051 0 0 0 -0.060051 0 0 0 -0.060051 
-0.060051 0 0 0 -0.060051 0 0 0 -0.060051 
0.0305457 0 0 0 0.0305457 0 0 0 0.0305457 
0.0305457 0 0 0 0.0305457 0 0 0 0.0305457 
-0.0396204 0 0 0 -0.0396204 0 0 0 -0.0396204 
-0.0396204 0 0 0 -0.0396204 0 0 0 -0.0396204 
0.0173367 1.48826e-14 0 1.48826e-14 0.0173367 0 0 0 0.0173367 
0.0173367 -5.55426e-14 0 -5.55426e-14 0.0173367 0 0 0 0.0173367 
-0.0275027 -5.55426e-14 0 -5.55426e-14 -0.0275027 0 0 0 -0.0275027 
-0.0275027 2.07288e-13 0 2.07288e-13 -0.0275027 0 0 0 -0.0275027 
0.00925974 0 0 0 0.00925974 0 0 0 0.00925974 
0.00925974 0 0 0 0.00925974 0 0 0 0.00925974 
-0.0200511 0 0 0 -0.0200511 0 0 0 -0.0200511 
-0.0200511 0 0 0 -0.0200511 0 0 0 -0.0200511 
40.7451 8.88178e-16 0 8.88178e-16 40.7451 0 0 0 40.7451 
40.7451 -2.37987e-16 0 -2.37987e-16 40.7451 0 0 0 40.7451 
-28.5387 -3.31473e-15 0 -3.31473e-15 -28.5387 0 0 0 -28.5387 
-28.5387 8.88178e-16 0 8.88178e-16 -28.5387 0 0 0 -28.5387 
5.92397 0 0 0 5.92397 0 0 0 5.92397 
5.92397 0 0 0 5.92397 0 0 0 5.92397 
-4.73599 0 0 0 -4.73599 0 0 0 -4.73599 
-4.73599 0 0 0 -4.73599 0 0 0 -4.73599 
1.7489 5.55112e-17 0 5.55112e-17 1.7489 0 0 0 1.7489 
1.7489 -2.0717e-16 0 -2.0717e-16 1.7489 0 0 0 1.7489 
-1.48928 -1.48742e-17 0 -1.48742e-17 -1.48928 0 0 0 -1.48928 
-1.48928 5.55112e-17 0 5.55112e-17 -1.48928 0 0 0 -1.48928 
0.696345 0 0 0 0.696345 0 0 0 0.696345 
0.696345 0 0 0 0.696345 0 0 0 0.696345 
-0.619038 0 0 0 -0.619038 0 0 0 -0.619038 
-0.619038 0 0 0 -0.619038 0 0 0 -0.619038 
0.326412 0 0 0 0.326412 0 0 0 0.326412 
0.326412 0 0 0 0.326412 0 0 0 0.326412 
-0.302031 0 0 0 -0.302031 0 0 0 -0.302031 
-0.302031 0 0 0 -0.302031 0 0 0 -0.302031 
0.168918 0 0 0 0.168918 0 0 0 0.168918 
0.168918 0 0 0 0.168918 0 0 0 0.168918 
-0.163873 0 0 0 -0.163873 0 0 0 -0.163873 
-0.163873 0 0 0 -0.163873 0 0 0 -0.163873 
0.0929547 0 0 0 0.0929547 0 0 0 0.0929547 
0.0929547 0 0 0 0.0929547 0 0 0 0.0929547 
-0.0961339 0 0 0 -0.0961339 0 0 0 -0.0961339 
-0.0961339 0 0 0 -0.0961339 0 0 0 -0.0961339 
0.0529758 -1.61852e-18 0 -1.61852e-18 0.0529758 0 0 0 0.0529758 
0.0529758 4.33681e-19 0 4.33681e-19 0.0529758 0 0 0 0.0529758 
-0.060051 4.33681e-19 0 4.33681e-19 -0.060051 0 0 0 -0.060051 
-0.060051 -1.16204e-19 0 -1.16204e-19 -0.060051 0 0 0 -0.060051 
0.0305457 -8.67362e-19 0 -8.67362e-19 0.0305457 0 0 0 0.0305457 
0.0305457 2.32409e-19 0 2.32409e-19 0.0305457 0 0 0 0.0305457 
-0.0396204 3.23704e-18 0 3.23704e-18 -0.0396204 0 0 0 -0.0396204 
-0.0396204 -8.67362e-19 0 -8.67362e-19 -0.0396204 0 0 0 -0.0396204 
0.0173367 0 0 0 0.0173367 0 0 0 0.0173367 
0.0173367 0 0 0 0.0173367 0 0 0 0.0173367 
-0.0275027 0 0 0 -0.0275027 0 0 0 -0.0275027 
-0.0275027 0 0 0 -0.0275027 0 0 0 -0.0275027 
0.00925974 1.34442e-13 0 1.34442e-13 0.00925974 0 0 0 0.00925974 
0.00925974 -5.01745e-13 0 -5.01745e-13 0.00925974 0 0 0 0.00925974 
-0.0200511 -1.82464e-13 0 -1.82464e-13 -0.0200511 0 0 0 -0.0200511 
-0.0200511 6.80966e-13 0 6.80966e-13 -0.0200511 0 0 0 -0.0200511 
40.7451 0 0 0 40.7451 0 0 0 40.7451 
40.7451 0 0 0 40.7451 0 0 0 40.7451 
-28.5387 0 0 0 -28.5387 0 0 0 -28.5387 
-28.5387 0 0 0 -28.5387 0 0 0 -28.5387 
5.92397 1.11022e-16 0 1.11022e-16 5.92397 0 0 0 5.92397 
5.92397 -4.14341e-16 0 -4.14341e-16 5.92397 0 0 0 5.92397 
-4.73599 -2.97483e-17 0 -2.97483e-17 -4.73599 0 0 0 -4.73599 
-4.73599 1.11022e-16 0 1.11022e-16 -4.73599 0 0 0 -4.73599 
1.7489 -1.03585e-16 0 -1.03585e-16 1.7489 0 0 0 1.7489 
1.7489 2.77556e-17 0 2.77556e-17 1.7489 0 0 0 1.7489 
-1.48928 2.77556e-17 0 2.77556e-17 -1.48928 0 0 0 -1.48928 
-1.48928 -7.43708e-18 0 -7.43708e-18 -1.48928 0 0 0 -1.48928 
0.696345 0 0 0 0.696345 0 0 0 0.696345 
0.696345 0 0 0 0.696345 0 0 0 0.696345 
-0.619038 0 0 0 -0.619038 0 0 0 -0.619038 
-0.619038 0 0 0 -0.619038 0 0 0 -0.619038 
0.326412 0 0 0 0.326412 0 0 0 0.326412 
0.326412 0 0 0 0.326412 0 0 0 0.326412 
-0.302031 0 0 0 -0.302031 0 0 0 -0.302031 
-0.302031 0 0 0 -0.302031 0 0 0 -0.302031 
0.168918 9.29636e-19 0 9.29636e-19 0.168918 0 0 0 0.168918 
0.168918 -3.46945e-18 0 -3.46945e-18 0.168918 0 0 0 0.168918 
-0.163873 -3.46945e-18 0 -3.46945e-18 -0.163873 0 0 0 -0.163873 
-0.163873 1.29482e-17 0 1.29482e-17 -0.163873 0 0 0 -0.163873 
0.0929547 1.73472e-18 0 1.73472e-18 0.0929547 0 0 0 0.0929547 
0.0929547 -4.64818e-19 0 -4.64818e-19 0.0929547 0 0 0 0.0929547 
-0.0961339 -6.47408e-18 0 -6.47408e-18 -0.0961339 0 0 0 -0.0961339 
-0.0961339 1.73472e-18 0 1.73472e-18 -0.0961339 0 0 0 -0.0961339 
0.0529758 -3.48613e-19 0 -3.48613e-19 0.0529758 0 0 0 0.0529758 
0.0529758 1.30104e-18 0 1.30104e-18 0.0529758 0 0 0 0.0529758 
-0.060051 1.30104e-18 0 1.30104e-18 -0.060051 0 0 0 -0.060051 
-0.060051 -4.85556e-18 0 -4.85556e-18 -0.060051 0 0 0 -0.060051 
0.0305457 -8.67362e-19 0 -8.67362e-19 0.0305457 0 0 0 0.0305457 
0.0305457 2.32409e-19 0 2.32409e-19 0.0305457 0 0 0 0.0305457 
-0.0396204 3.23704e-18 0 3.23704e-18 -0.0396204 0 0 0 -0.0396204 
-0.0396204 -8.67362e-19 0 -8.67362e-19 -0.0396204 0 0 0 -0.0396204 
0.0173367 -4.33681e-19 0 -4.33681e-19 0.0173367 0 0 0 0.0173367 
0.0173367 1.61852e-18 0 1.61852e-18 0.0173367 0 0 0 0.0173367 
-0.0275027 1.16204e-19 0 1.16204e-19 -0.0275027 0 0 0 -0.0275027 
-0.0275027 -4.33681e-19 0 -4.33681e-19 -0.0275027 0 0 0 -0.0275027 
0.00925974 1.7206e-13 0 1.7206e-13 0.00925974 0 0 0 0.00925974 
0.00925974 -4.61034e-14 0 -4.61034e-14 0.00925974 0 0 0 0.00925974 
-0.0200511 -6.42136e-13 0 -6.42136e-13 -0.0200511 0 0 0 -0.0200511 
-0.0200511 1.7206e-13 0 1.7206e-13 -0.0200511 0 0 0 -0.0200511 

TENSORS Strain float
-0.0351994 -0.00603191 0 -0.00603191 0.07187 0 0 0 0 
-0.032515 -0.0177933 0 -0.0177933 0.0691856 0 0 0 0 
-0.0351994 -0.00251903 0 -0.00251903 0.00951456 0 0 0 0 
-0.0340784 -0.00743077 0 -0.00743077 0.00839349 0 0 0 0 
-0.00914125 -0.00133033 0 -0.00133033 0.0144728 0 0 0 0 
-0.0085492 -0.00392429 0 -0.00392429 0.0138808 0 0 0 0 
-0.00914125 -0.000789844 0 -0.000789844 0.00487886 0 0 0 0 
-0.00878974 -0.00232993 0 -0.00232993 0.00452735 0 0 0 0 
-0.00372262 -0.000508113 0 -0.000508113 0.00529663 0 0 0 0 
-0.00349649 -0.00149886 0 -0.00149886 0.0050705 0 0 0 0 
-0.00372262 -0.000343928 0 -0.000343928 0.00238227 0 0 0 0 
-0.00356956 -0.00101454 0 -0.00101454 0.00222921 0 0 0 0 
-0.0018376 -0.000242354 0 -0.000242354 0.00246431 0 0 0 0 
-0.00172974 -0.00071491 0 -0.00071491 0.00235645 0 0 0 0 
-0.0018376 -0.00017566 0 -0.00017566 0.00128046 0 0 0 0 
-0.00175942 -0.000518173 0 -0.000518173 0.00120229 0 0 0 0 
-0.00101051 -0.000130407 0 -0.000130407 0.00130428 0 0 0 0 
-0.000952471 -0.000384682 0 -0.000384682 0.00124624 0 0 0 0 
-0.00101051 -9.85431e-05 0 -9.85431e-05 0.00073868 0 0 0 0 
-0.000966652 -0.000290688 0 -0.000290688 0.000694824 0 0 0 0 
-0.000595356 -7.56451e-05 0 -7.56451e-05 0.000747382 0 0 0 0 
-0.00056169 -0.000223142 0 -0.000223142 0.000713716 0 0 0 0 
-0.000595356 -5.87717e-05 0 -5.87717e-05 0.00044787 0 0 0 0 
-0.0005692 -0.000173368 0 -0.000173368 0.000421714 0 0 0 0 
-0.000367912 -4.61668e-05 0 -4.61668e-05 0.000451571 0 0 0 0 
-0.000347366 -0.000136185 0 -0.000136185 0.000431025 0 0 0 0 
-0.000367912 -3.65794e-05 0 -3.65794e-05 0.000281391 0 0 0 0 
-0.000351632 -0.000107904 0 -0.000107904 0.000265112 0 0 0 0 
-0.000235466 -2.92167e-05 0 -2.92167e-05 0.000283144 0 0 0 0 
-0.000222464 -8.61851e-05 0 -8.61851e-05 0.000270142 0 0 0 0 
-0.000235466 -2.34859e-05 0 -2.34859e-05 0.00018142 0 0 0 0 
-0.000225014 -6.92801e-05 0 -6.92801e-05 0.000170968 0 0 0 0 
-0.000154829 -1.89938e-05 0 -1.89938e-05 0.00018232 0 0 0 0 
-0.000146376 -5.6029e-05 0 -5.6029e-05 0.000173867 0 0 0 0 
-0.000154829 -1.54362e-05 0 -1.54362e-05 0.000119171 0 0 0 0 
-0.000147959 -4.55345e-05 0 -4.55345e-05 0.000112301 0 0 0 0 
-0.000104059 -1.26036e-05 0 -1.26036e-05 0.000119662 0 0 0 0 
-9.84496e-05 -3.71789e-05 0 -3.71789e-05 0.000114053 0 0 0 0 
-0.000104059 -1.03301e-05 0 -1.03301e-05 7.93063e-05 0 0 0 0 
-9.94614e-05 -3.04724e-05 0 -3.04724e-05 7.47089e-05 0 0 0 0 
-7.12539e-05 -8.49788e-06 0 -8.49788e-06 7.95876e-05 0 0 0 0 
-6.7472e-05 -2.50675e-05 0 -2.50675e-05 7.58057e-05 0 0 0 0 
-7.12539e-05 -7.01174e-06 0 -7.01174e-06 5.32079e-05 0 0 0 0 
-6.81333e-05 -2.06836e-05 0 -2.06836e-05 5.00874e-05 0 0 0 0 
-0.0272807 -0.0286624 0 -0.0286624 0.0639513 0 0 0 0 
-0.019759 -0.0380943 0 -0.0380943 0.0564296 0 0 0 0 
-0.0318924 -0.0119699 0 -0.0119699 0.00620756 0 0 0 0 
-0.0287512 -0.0159088 0 -0.0159088 0.00306638 0 0 0 0 
-0.00739478 -0.00632147 0 -0.00632147 0.0127264 0 0 0 0 
-0.00573588 -0.00840167 0 -0.00840167 0.0110675 0 0 0 0 
-0.00810434 -0.00375317 0 -0.00375317 0.00384195 0 0 0 0 
-0.00711942 -0.00498822 0 -0.00498822 0.00285703 0 0 0 0 
-0.00305557 -0.00241445 0 -0.00241445 0.00462957 0 0 0 0 
-0.00242196 -0.00320896 0 -0.00320896 0.00399597 0 0 0 0 
-0.00327111 -0.00163427 0 -0.00163427 0.00193076 0 0 0 0 
-0.00284224 -0.00217206 0 -0.00217206 0.00150189 0 0 0 0 
-0.00151943 -0.00115162 0 -0.00115162 0.00214614 0 0 0 0 
-0.00121722 -0.00153058 0 -0.00153058 0.00184393 0 0 0 0 
-0.00160699 -0.000834702 0 -0.000834702 0.00104985 0 0 0 0 
-0.00138794 -0.00110938 0 -0.00110938 0.000830809 0 0 0 0 
-0.000839308 -0.000619667 0 -0.000619667 0.00113308 0 0 0 0 
-0.000676694 -0.000823579 0 -0.000823579 0.000970465 0 0 0 0 
-0.000881139 -0.000468256 0 -0.000468256 0.000609312 0 0 0 0 
-0.000758258 -0.000622344 0 -0.000622344 0.000486431 0 0 0 0 
-0.000496048 -0.00035945 0 -0.00035945 0.000648074 0 0 0 0 
-0.00040172 -0.000477733 0 -0.000477733 0.000553746 0 0 0 0 
-0.0005182 -0.000279271 0 -0.000279271 0.000370714 0 0 0 0 
-0.000444913 -0.00037117 0 -0.00037117 0.000297427 0 0 0 0 
-0.000307304 -0.000219375 0 -0.000219375 0.000390963 0 0 0 0 
-0.000249735 -0.000291564 0 -0.000291564 0.000333394 0 0 0 0 
-0.00031989 -0.000173818 0 -0.000173818 0.000233369 0 0 0 0 
-0.000274276 -0.000231016 0 -0.000231016 0.000187756 0 0 0 0 
-0.00019711 -0.000138832 0 -0.000138832 0.000244789 0 0 0 0 
-0.000160678 -0.000184517 0 -0.000184517 0.000208356 0 0 0 0 
-0.000204634 -0.0001116 0 -0.0001116 0.000150588 0 0 0 0 
-0.000175347 -0.000148324 0 -0.000148324 0.000121301 0 0 0 0 
-0.000129894 -9.02546e-05 0 -9.02546e-05 0.000157385 0 0 0 0 
-0.000106209 -0.000119954 0 -0.000119954 0.0001337 0 0 0 0 
-0.000134564 -7.33495e-05 0 -7.33495e-05 9.89059e-05 0 0 0 0 
-0.000115316 -9.74865e-05 0 -9.74865e-05 7.96573e-05 0 0 0 0 
-8.75126e-05 -5.98898e-05 0 -5.98898e-05 0.000103116 0 0 0 0 
-7.17961e-05 -7.95976e-05 0 -7.95976e-05 8.73991e-05 0 0 0 0 
-9.04972e-05 -4.90867e-05 0 -4.90867e-05 6.57448e-05 0 0 0 0 
-7.76157e-05 -6.52395e-05 0 -6.52395e-05 5.28633e-05 0 0 0 0 
-6.00978e-05 -4.03802e-05 0 -4.03802e-05 6.84315e-05 0 0 0 0 
-4.95011e-05 -5.3668e-05 0 -5.3668e-05 5.78349e-05 0 0 0 0 
-6.20488e-05 -3.33183e-05 0 -3.33183e-05 4.40028e-05 0 0 0 0 
-5.33053e-05 -4.42823e-05 0 -4.42823e-05 3.52593e-05 0 0 0 0 
-0.0103271 -0.045616 0 -0.045616 0.0469977 0 0 0 0 
0.000542016 -0.0508503 0 -0.0508503 0.0361286 0 0 0 0 
-0.0248123 -0.01905 0 -0.01905 -0.000872529 0 0 0 0 
-0.0202732 -0.0212359 0 -0.0212359 -0.00541166 0 0 0 0 
-0.00365568 -0.0100606 0 -0.0100606 0.00898726 0 0 0 0 
-0.00125851 -0.011215 0 -0.011215 0.00659008 0 0 0 0 
-0.00588437 -0.00597314 0 -0.00597314 0.00162198 0 0 0 0 
-0.00446112 -0.00665854 0 -0.00665854 0.000198729 0 0 0 0 
-0.00162744 -0.00384257 0 -0.00384257 0.00320145 0 0 0 0 
-0.000711856 -0.00428349 0 -0.00428349 0.00228586 0 0 0 0 
-0.00230445 -0.00260093 0 -0.00260093 0.000964099 0 0 0 0 
-0.00168471 -0.00289938 0 -0.00289938 0.000344362 0 0 0 0 
-0.000838261 -0.00183279 0 -0.00183279 0.00146497 0 0 0 0 
-0.000401554 -0.00204309 0 -0.00204309 0.00102826 0 0 0 0 
-0.00111327 -0.00132842 0 -0.00132842 0.000556135 0 0 0 0 
-0.00079674 -0.00148085 0 -0.00148085 0.000239606 0 0 0 0 
-0.000472781 -0.000986194 0 -0.000986194 0.000766552 0 0 0 0 
-0.000237796 -0.00109936 0 -0.00109936 0.000531567 0 0 0 0 
-0.00060417 -0.000745226 0 -0.000745226 0.000332343 0 0 0 0 
-0.000426602 -0.000830738 0 -0.000830738 0.000154774 0 0 0 0 
-0.000283437 -0.000572061 0 -0.000572061 0.000435463 0 0 0 0 
-0.000147129 -0.000637703 0 -0.000637703 0.000299155 0 0 0 0 
-0.000353013 -0.000444457 0 -0.000444457 0.000205528 0 0 0 0 
-0.000247111 -0.000495457 0 -0.000495457 9.96252e-05 0 0 0 0 
-0.000177545 -0.000349133 0 -0.000349133 0.000261205 0 0 0 0 
-9.43557e-05 -0.000389195 0 -0.000389195 0.000178015 0 0 0 0 
-0.000217078 -0.00027663 0 -0.00027663 0.000130558 0 0 0 0 
-0.000151164 -0.000308372 0 -0.000308372 6.46438e-05 0 0 0 0 
-0.000114993 -0.000220949 0 -0.000220949 0.000162671 0 0 0 0 
-6.23459e-05 -0.000246303 0 -0.000246303 0.000110024 0 0 0 0 
-0.000138623 -0.000177611 0 -0.000177611 8.45773e-05 0 0 0 0 
-9.6303e-05 -0.000197991 0 -0.000197991 4.22571e-05 0 0 0 0 
-7.6509e-05 -0.000143639 0 -0.000143639 0.000104 0 0 0 0 
-4.22834e-05 -0.000160122 0 -0.000160122 6.97745e-05 0 0 0 0 
-9.11787e-05 -0.000116735 0 -0.000116735 5.55203e-05 0 0 0 0 
-6.33637e-05 -0.00013013 0 -0.00013013 2.77053e-05 0 0 0 0 
-5.20883e-05 -9.53141e-05 0 -9.53141e-05 6.76913e-05 0 0 0 0 
-2.93774e-05 -0.000106251 0 -0.000106251 4.49804e-05 0 0 0 0 
-6.14629e-05 -7.8121e-05 0 -7.8121e-05 3.67104e-05 0 0 0 0 
-4.28486e-05 -8.70851e-05 0 -8.70851e-05 1.80962e-05 0 0 0 0 
-3.62133e-05 -6.42647e-05 0 -6.42647e-05 4.4547e-05 0 0 0 0 
-2.09006e-05 -7.16388e-05 0 -7.16388e-05 2.92344e-05 0 0 0 0 
-4.23413e-05 -5.30258e-05 0 -5.30258e-05 2.42953e-05 0 0 0 0 
-2.97066e-05 -5.91104e-05 0 -5.91104e-05 1.16606e-05 0 0 0 0 
0.0123034 -0.0535347 0 -0.0535347 0.0243672 0 0 0 0 
0.0243672 -0.0535347 0 -0.0535347 0.0123034 0 0 0 0 
-0.0153615 -0.022357 0 -0.022357 -0.0103234 0 0 0 0 
-0.0103234 -0.022357 0 -0.022357 -0.0153615 0 0 0 0 
0.00133545 -0.011807 0 -0.011807 0.00399612 0 0 0 0 
0.00399612 -0.011807 0 -0.011807 0.00133545 0 0 0 0 
-0.00292104 -0.00701006 0 -0.00701006 -0.00134135 0 0 0 0 
-0.00134135 -0.00701006 0 -0.00701006 -0.00292104 0 0 0 0 
0.00027889 -0.00450962 0 -0.00450962 0.00129512 0 0 0 0 
0.00129512 -0.00450962 0 -0.00450962 0.00027889 0 0 0 0 
-0.0010141 -0.00305245 0 -0.00305245 -0.000326248 0 0 0 0 
-0.000326248 -0.00305245 0 -0.00305245 -0.0010141 0 0 0 0 
7.10012e-05 -0.00215095 0 -0.00215095 0.000555709 0 0 0 0 
0.000555709 -0.00215095 0 -0.00215095 7.10012e-05 0 0 0 0 
-0.000454228 -0.00155903 0 -0.00155903 -0.000102907 0 0 0 0 
-0.000102907 -0.00155903 0 -0.00155903 -0.000454228 0 0 0 0 
1.64787e-05 -0.00115739 0 -0.00115739 0.000277292 0 0 0 0 
0.000277292 -0.00115739 0 -0.00115739 1.64787e-05 0 0 0 0 
-0.000234457 -0.000874594 0 -0.000874594 -3.73707e-05 0 0 0 0 
-3.73707e-05 -0.000874594 0 -0.000874594 -0.000234457 0 0 0 0 
3.6797e-07 -0.000671369 0 -0.000671369 0.000151658 0 0 0 0 
0.000151658 -0.000671369 0 -0.000671369 3.67965e-07 0 0 0 0 
-0.000132514 -0.000521613 0 -0.000521613 -1.49711e-05 0 0 0 0 
-1.49711e-05 -0.000521613 0 -0.000521613 -0.000132514 0 0 0 0 
-4.33716e-06 -0.000409741 0 -0.000409741 8.79964e-05 0 0 0 0 
8.79964e-05 -0.000409741 0 -0.000409741 -4.33716e-06 0 0 0 0 
-7.98397e-05 -0.000324652 0 -0.000324652 -6.68082e-06 0 0 0 0 
-6.68082e-06 -0.000324652 0 -0.000324652 -7.98397e-05 0 0 0 0 
-5.37759e-06 -0.000259305 0 -0.000259305 5.30558e-05 0 0 0 0 
5.30558e-05 -0.000259305 0 -0.000259305 -5.3776e-06 0 0 0 0 
-5.05089e-05 -0.000208443 0 -0.000208443 -3.53703e-06 0 0 0 0 
-3.53703e-06 -0.000208443 0 -0.000208443 -5.05089e-05 0 0 0 0 
-5.24822e-06 -0.000168575 0 -0.000168575 3.27394e-05 0 0 0 0 
3.27394e-05 -0.000168575 0 -0.000168575 -5.24822e-06 0 0 0 0 
-3.32654e-05 -0.000137 0 -0.000137 -2.39302e-06 0 0 0 0 
-2.39302e-06 -0.000137 0 -0.000137 -3.32654e-05 0 0 0 0 
-4.80212e-06 -0.00011186 0 -0.00011186 2.04051e-05 0 0 0 0 
2.04051e-05 -0.00011186 0 -0.00011186 -4.80212e-06 0 0 0 0 
-2.27064e-05 -9.16825e-05 0 -9.16825e-05 -2.04609e-06 0 0 0 0 
-2.04609e-06 -9.16825e-05 0 -9.16825e-05 -2.27064e-05 0 0 0 0 
-4.33099e-06 -7.54207e-05 0 -7.54207e-05 1.26648e-05 0 0 0 0 
1.26648e-05 -7.54207e-05 0 -7.54207e-05 -4.33099e-06 0 0 0 0 
-1.60347e-05 -6.22309e-05 0 -6.22309e-05 -2.01125e-06 0 0 0 0 
-2.01125e-06 -6.22309e-05 0 -6.22309e-05 -1.60347e-05 0 0 0 0 
0.0361286 -0.0508503 0 -0.0508503 0.000542016 0 0 0 0 
0.0469977 -0.045616 0 -0.045616 -0.0103271 0 0 0 0 
-0.00541166 -0.0212359 0 -0.0212359 -0.0202732 0 0 0 0 
-0.000872529 -0.01905 0 -0.01905 -0.0248123 0 0 0 0 
0.00659008 -0.011215 0 -0.011215 -0.00125851 0 0 0 0 
0.00898726 -0.0100606 0 -0.0100606 -0.00365568 0 0 0 0 
0.000198729 -0.00665854 0 -0.00665854 -0.00446112 0 0 0 0 
0.00162198 -0.00597314 0 -0.00597314 -0.00588437 0 0 0 0 
0.00228586 -0.00428349 0 -0.00428349 -0.000711856 0 0 0 0 
0.00320145 -0.00384257 0 -0.00384257 -0.00162744 0 0 0 0 
0.000344362 -0.00289938 0 -0.00289938 -0.00168471 0 0 0 0 
0.000964099 -0.00260093 0 -0.00260093 -0.00230445 0 0 0 0 
0.00102827 -0.00204309 0 -0.00204309 -0.000401554 0 0 0 0 
0.00146497 -0.00183279 0 -0.00183279 -0.000838261 0 0 0 0 
0.000239606 -0.00148085 0 -0.00148085 -0.00079674 0 0 0 0 
0.000556135 -0.00132842 0 -0.00132842 -0.00111327 0 0 0 0 
0.000531567 -0.00109936 0 -0.00109936 -0.000237796 0 0 0 0 
0.000766552 -0.000986194 0 -0.000986194 -0.000472781 0 0 0 0 
0.000154774 -0.000830738 0 -0.000830738 -0.000426602 0 0 0 0 
0.000332343 -0.000745226 0 -0.000745226 -0.00060417 0 0 0 0 
0.000299155 -0.000637703 0 -0.000637703 -0.000147129 0 0 0 0 
0.000435463 -0.000572061 0 -0.000572061 -0.000283437 0 0 0 0 
9.96252e-05 -0.000495457 0 -0.000495457 -0.000247111 0 0 0 0 
0.000205528 -0.000444457 0 -0.000444457 -0.000353013 0 0 0 0 
0.000178015 -0.000389195 0 -0.000389195 -9.43557e-05 0 0 0 0 
0.000261205 -0.000349133 0 -0.000349133 -0.000177545 0 0 0 0 
6.46438e-05 -0.000308372 0 -0.000308372 -0.000151164 0 0 0 0 
0.000130558 -0.00027663 0 -0.00027663 -0.000217078 0 0 0 0 
0.000110024 -0.000246303 0 -0.000246303 -6.23459e-05 0 0 0 0 
0.000162671 -0.000220949 0 -0.000220949 -0.000114993 0 0 0 0 
4.22571e-05 -0.000197991 0 -0.000197991 -9.6303e-05 0 0 0 0 
8.45773e-05 -0.000177611 0 -0.000177611 -0.000138623 0 0 0 0 
6.97745e-05 -0.000160122 0 -0.000160122 -4.22834e-05 0 0 0 0 
0.000104 -0.000143639 0 -0.000143639 -7.6509e-05 0 0 0 0 
2.77053e-05 -0.00013013 0 -0.00013013 -6.33637e-05 0 0 0 0 
5.55203e-05 -0.000116735 0 -0.000116735 -9.11787e-05 0 0 0 0 
4.49804e-05 -0.000106251 0 -0.000106251 -2.93774e-05 0 0 0 0 
6.76913e-05 -9.53141e-05 0 -9.53141e-05 -5.20883e-05 0 0 0 0 
1.80962e-05 -8.70851e-05 0 -8.70851e-05 -4.28486e-05 0 0 0 0 
3.67104e-05 -7.8121e-05 0 -7.8121e-05 -6.14629e-05 0 0 0 0 
2.92344e-05 -7.16388e-05 0 -7.16388e-05 -2.09006e-05 0 0 0 0 
4.4547e-05 -6.42647e-05 0 -6.42647e-05 -3.62133e-05 0 0 0 0 
1.16606e-05 -5.91104e-05 0 -5.91104e-05 -2.97066e-05 0 0 0 0 
2.42953e-05 -5.30258e-05 0 -5.30258e-05 -4.23413e-05 0 0 0 0 
0.0564296 -0.0380943 0 -0.0380943 -0.019759 0 0 0 0 
0.0639513 -0.0286624 0 -0.0286624 -0.0272807 0 0 0 0 
0.00306638 -0.0159088 0 -0.0159088 -0.0287512 0 0 0 0 
0.00620756 -0.0119699 0 -0.0119699 -0.0318924 0 0 0 0 
0.0110675 -0.00840167 0 -0.00840167 -0.00573588 0 0 0 0 
0.0127264 -0.00632147 0 -0.00632147 -0.00739478 0 0 0 0 
0.00285703 -0.00498822 0 -0.00498822 -0.00711942 0 0 0 0 
0.00384195 -0.00375317 0 -0.00375317 -0.00810434 0 0 0 0 
0.00399597 -0.00320896 0 -0.00320896 -0.00242196 0 0 0 0 
0.00462957 -0.00241445 0 -0.00241445 -0.00305557 0 0 0 0 
0.00150189 -0.00217206 0 -0.00217206 -0.00284224 0 0 0 0 
0.00193076 -0.00163427 0 -0.00163427 -0.00327111 0 0 0 0 
0.00184393 -0.00153058 0 -0.00153058 -0.00121722 0 0 0 0 
0.00214614 -0.00115162 0 -0.00115162 -0.00151943 0 0 0 0 
0.000830809 -0.00110938 0 -0.00110938 -0.00138794 0 0 0 0 
0.00104985 -0.000834702 0 -0.000834702 -0.00160699 0 0 0 0 
0.000970465 -0.000823579 0 -0.000823579 -0.000676694 0 0 0 0 
0.00113308 -0.000619667 0 -0.000619667 -0.000839308 0 0 0 0 
0.000486431 -0.000622344 0 -0.000622344 -0.000758258 0 0 0 0 
0.000609312 -0.000468256 0 -0.000468256 -0.000881139 0 0 0 0 
0.000553746 -0.000477733 0 -0.000477733 -0.00040172 0 0 0 0 
0.000648074 -0.00035945 0 -0.00035945 -0.000496048 0 0 0 0 
0.000297427 -0.00037117 0 -0.00037117 -0.000444913 0 0 0 0 
0.000370714 -0.000279271 0 -0.000279271 -0.0005182 0 0 0 0 
0.000333394 -0.000291564 0 -0.000291564 -0.000249735 0 0 0 0 
0.000390963 -0.000219375 0 -0.000219375 -0.000307304 0 0 0 0 
0.000187756 -0.000231016 0 -0.000231016 -0.000274276 0 0 0 0 
0.000233369 -0.000173818 0 -0.000173818 -0.00031989 0 0 0 0 
0.000208356 -0.000184517 0 -0.000184517 -0.000160678 0 0 0 0 
0.000244789 -0.000138832 0 -0.000138832 -0.00019711 0 0 0 0 
0.000121301 -0.000148324 0 -0.000148324 -0.000175347 0 0 0 0 
0.000150588 -0.0001116 0 -0.0001116 -0.000204634 0 0 0 0 
0.0001337 -0.000119954 0 -0.000119954 -0.000106209 0 0 0 0 
0.000157385 -9.02546e-05 0 -9.02546e-05 -0.000129894 0 0 0 0 
7.96573e-05 -9.74865e-05 0 -9.74865e-05 -0.000115316 0 0 0 0 
9.89059e-05 -7.33495e-05 0 -7.33495e-05 -0.000134564 0 0 0 0 
8.73991e-05 -7.95976e-05 0 -7.95976e-05 -7.17961e-05 0 0 0 0 
0.000103116 -5.98898e-05 0 -5.98898e-05 -8.75126e-05 0 0 0 0 
5.28633e-05 -6.52395e-05 0 -6.52395e-05 -7.76157e-05 0 0 0 0 
6.57448e-05 -4.90867e-05 0 -4.90867e-05 -9.04972e-05 0 0 0 0 
5.78349e-05 -5.3668e-05 0 -5.3668e-05 -4.95011e-05 0 0 0 0 
6.84315e-05 -4.03802e-05 0 -4.03802e-05 -6.00978e-05 0 0 0 0 
3.52593e-05 -4.42823e-05 0 -4.42823e-05 -5.33053e-05 0 0 0 0 
4.40028e-05 -3.33183e-05 0 -3.33183e-05 -6.20488e-05 0 0 0 0 
0.0691856 -0.0177933 0 -0.0177933 -0.032515 0 0 0 0 
0.07187 -0.00603191 0 -0.00603191 -0.0351994 0 0 0 0 
0.00839349 -0.00743077 0 -0.00743077 -0.0340784 0 0 0 0 
0.00951456 -0.00251903 0 -0.00251903 -0.0351994 0 0 0 0 
0.0138808 -0.00392429 0 -0.00392429 -0.0085492 0 0 0 0 
0.0144728 -0.00133033 0 -0.00133033 -0.00914125 0 0 0 0 
0.00452735 -0.00232993 0 -0.00232993 -0.00878974 0 0 0 0 
0.00487886 -0.000789844 0 -0.000789844 -0.00914125 0 0 0 0 
0.0050705 -0.00149886 0 -0.00149886 -0.00349649 0 0 0 0 
0.00529663 -0.000508113 0 -0.000508113 -0.00372262 0 0 0 0 
0.00222921 -0.00101454 0 -0.00101454 -0.00356956 0 0 0 0 
0.00238227 -0.000343928 0 -0.000343928 -0.00372262 0 0 0 0 
0.00235645 -0.00071491 0 -0.00071491 -0.00172974 0 0 0 0 
0.00246431 -0.000242354 0 -0.000242354 -0.0018376 0 0 0 0 
0.00120229 -0.000518173 0 -0.000518173 -0.00175942 0 0 0 0 
0.00128046 -0.00017566 0 -0.00017566 -0.0018376 0 0 0 0 
0.00124624 -0.000384682 0 -0.000384682 -0.000952471 0 0 0 0 
0.00130428 -0.000130407 0 -0.000130407 -0.00101051 0 0 0 0 
0.000694824 -0.000290688 0 -0.000290688 -0.000966652 0 0 0 0 
0.00073868 -9.85431e-05 0 -9.85431e-05 -0.00101051 0 0 0 0 
0.000713716 -0.000223142 0 -0.000223142 -0.00056169 0 0 0 0 
0.000747382 -7.56451e-05 0 -7.56451e-05 -0.000595356 0 0 0 0 
0.000421714 -0.000173368 0 -0.000173368 -0.0005692 0 0 0 0 
0.00044787 -5.87717e-05 0 -5.87717e-05 -0.000595356 0 0 0 0 
0.000431025 -0.000136185 0 -0.000136185 -0.000347366 0 0 0 0 
0.000451571 -4.61668e-05 0 -4.61668e-05 -0.000367912 0 0 0 0 
0.000265112 -0.000107904 0 -0.000107904 -0.000351632 0 0 0 0 
0.000281391 -3.65794e-05 0 -3.65794e-05 -0.000367912 0 0 0 0 
0.000270142 -8.61851e-05 0 -8.61851e-05 -0.000222464 0 0 0 0 
0.000283144 -2.92167e-05 0 -2.92167e-05 -0.000235466 0 0 0 0 
0.000170968 -6.92801e-05 0 -6.92801e-05 -0.000225014 0 0 0 0 
0.00018142 -2.34859e-05 0 -2.34859e-05 -0.000235466 0 0 0 0 
0.000173867 -5.6029e-05 0 -5.6029e-05 -0.000146376 0 0 0 0 
0.00018232 -1.89938e-05 0 -1.89938e-05 -0.000154829 0 0 0 0 
0.000112301 -4.55345e-05 0 -4.55345e-05 -0.000147959 0 0 0 0 
0.000119171 -1.54362e-05 0 -1.54362e-05 -0.000154829 0 0 0 0 
0.000114053 -3.71789e-05 0 -3.71789e-05 -9.84496e-05 0 0 0 0 
0.000119662 -1.26036e-05 0 -1.26036e-05 -0.000104059 0 0 0 0 
7.47089e-05 -3.04724e-05 0 -3.04724e-05 -9.94614e-05 0 0 0 0 
7.93063e-05 -1.03301e-05 0 -1.03301e-05 -0.000104059 0 0 0 0 
7.58057e-05 -2.50675e-05 0 -2.50675e-05 -6.7472e-05 0 0 0 0 
7.95876e-05 -8.49788e-06 0 -8.49788e-06 -7.12539e-05 0 0 0 0 
5.00874e-05 -2.06836e-05 0 -2.06836e-05 -6.81333e-05 0 0 0 0 
5.32079e-05 -7.01174e-06 0 -7.01174e-06 -7.12539e-05 0 0 0 0 
0.07187 0.00603191 0 0.00603191 -0.0351994 0 0 0 0 
0.0691856 0.0177933 0 0.0177933 -0.032515 0 0 0 0 
0.00951456 0.00251903 0 0.00251903 -0.0351994 0 0 0 0 
0.00839349 0.00743077 0 0.00743077 -0.0340784 0 0 0 0 
0.0144728 0.00133033 0 0.00133033 -0.00914125 0 0 0 0 
0.0138808 0.00392429 0 0.00392429 -0.0085492 0 0 0 0 
0.00487886 0.000789844 0 0.000789844 -0.00914125 0 0 0 0 
0.00452735 0.00232993 0 0.00232993 -0.00878974 0 0 0 0 
0.00529663 0.000508113 0 0.000508113 -0.00372262 0 0 0 0 
0.0050705 0.00149886 0 0.00149886 -0.00349649 0 0 0 0 
0.00238227 0.000343928 0 0.000343928 -0.00372262 0 0 0 0 
0.00222921 0.00101454 0 0.00101454 -0.00356956 0 0 0 0 
0.00246431 0.000242354 0 0.000242354 -0.0018376 0 0 0 0 
0.00235645 0.00071491 0 0.00071491 -0.00172974 0 0 0 0 
0.00128046 0.00017566 0 0.00017566 -0.0018376 0 0 0 0 
0.00120229 0.000518173 0 0.000518173 -0.00175942 0 0 0 0 
0.00130428 0.000130407 0 0.000130407 -0.00101051 0 0 0 0 
0.00124624 0.000384682 0 0.000384682 -0.000952471 0 0 0 0 
0.00073868 9.85431e-05 0 9.85431e-05 -0.00101051 0 0 0 0 
0.000694824 0.000290688 0 0.000290688 -0.000966652 0 0 0 0 
0.000747382 7.56451e-05 0 7.56451e-05 -0.000595356 0 0 0 0 
0.000713716 0.000223142 0 0.000223142 -0.00056169 0 0 0 0 
0.00044787 5.87717e-05 0 5.87717e-05 -0.000595356 0 0 0 0 
0.000421714 0.000173368 0 0.000173368 -0.0005692 0 0 0 0 
0.000451571 4.61668e-05 0 4.61668e-05 -0.000367912 0 0 0 0 
0.000431025 0.000136185 0 0.000136185 -0.000347366 0 0 0 0 
0.000281391 3.65794e-05 0 3.65794e-05 -0.000367912 0 0 0 0 
0.000265112 0.000107904 0 0.000107904 -0.000351632 0 0 0 0 
0.000283144 2.92167e-05 0 2.92167e-05 -0.000235466 0 0 0 0 
0.000270142 8.61851e-05 0 8.61851e-05 -0.000222464 0 0 0 0 
0.00018142 2.34859e-05 0 2.34859e-05 -0.000235466 0 0 0 0 
0.000170968 6.92801e-05 0 6.92801e-05 -0.000225014 0 0 0 0 
0.00018232 1.89938e-05 0 1.89938e-05 -0.000154829 0 0 0 0 
0.000173867 5.6029e-05 0 5.6029e-05 -0.000146376 0 0 0 0 
0.000119171 1.54362e-05 0 1.54362e-05 -0.000154829 0 0 0 0 
0.000112301 4.55345e-05 0 4.55345e-05 -0.000147959 0 0 0 0 
0.000119662 1.26036e-05 0 1.26036e-05 -0.000104059 0 0 0 0 
0.000114053 3.71789e-05 0 3.71789e-05 -9.84496e-05 0 0 0 0 
7.93063e-05 1.03301e-05 0 1.03301e-05 -0.000104059 0 0 0 0 
7.47089e-05 3.04724e-05 0 3.04724e-05 -9.94614e-05 0 0 0 0 
7.95876e-05 8.49788e-06 0 8.49788e-06 -7.12539e-05 0 0 0 0 
7.58057e-05 2.50675e-05 0 2.50675e-05 -6.7472e-05 0 0 0 0 
5.32079e-05 7.01174e-06 0 7.01174e-06 -7.12539e-05 0 0 0 0 
5.00874e-05 2.06836e-05 0 2.06836e-05 -6.81333e-05 0 0 0 0 
0.0639513 0.0286624 0 0.0286624 -0.0272807 0 0 0 0 
0.0564296 0.0380943 0 0.0380943 -0.019759 0 0 0 0 
0.00620756 0.0119699 0 0.0119699 -0.0318924 0 0 0 0 
0.00306638 0.0159088 0 0.0159088 -0.0287512 0 0 0 0 
0.0127264 0.00632147 0 0.00632147 -0.00739478 0 0 0 0 
0.0110675 0.00840167 0 0.00840167 -0.00573588 0 0 0 0 
0.00384195 0.00375317 0 0.00375317 -0.00810434 0 0 0 0 
0.00285703 0.00498822 0 0.00498822 -0.00711942 0 0 0 0 
0.00462957 0.00241445 0 0.00241445 -0.00305557 0 0 0 0 
0.00399597 0.00320896 0 0.00320896 -0.00242196 0 0 0 0 
0.00193076 0.00163427 0 0.00163427 -0.00327111 0 0 0 0 
0.00150189 0.00217206 0 0.00217206 -0.00284224 0 0 0 0 
0.00214614 0.00115162 0 0.00115162 -0.00151943 0 0 0 0 
0.00184393 0.00153058 0 0.00153058 -0.00121722 0 0 0 0 
0.00104985 0.000834702 0 0.000834702 -0.00160699 0 0 0 0 
0.000830809 0.00110938 0 0.00110938 -0.00138794 0 0 0 0 
0.00113308 0.000619667 0 0.000619667 -0.000839308 0 0 0 0 
0.000970465 0.000823579 0 0.000823579 -0.000676694 0 0 0 0 
0.000609312 0.000468256 0 0.000468256 -0.000881139 0 0 0 0 
0.000486431 0.000622344 0 0.000622344 -0.000758258 0 0 0 0 
0.000648074 0.00035945 0 0.00035945 -0.000496048 0 0 0 0 
0.000553746 0.000477733 0 0.000477733 -0.00040172 0 0 0 0 
0.000370714 0.000279271 0 0.000279271 -0.0005182 0 0 0 0 
0.000297427 0.00037117 0 0.00037117 -0.000444913 0 0 0 0 
0.000390963 0.000219375 0 0.000219375 -0.000307304 0 0 0 0 
0.000333394 0.000291564 0 0.000291564 -0.000249735 0 0 0 0 
0.000233369 0.000173818 0 0.000173818 -0.00031989 0 0 0 0 
0.000187756 0.000231016 0 0.000231016 -0.000274276 0 0 0 0 
0.000244789 0.000138832 0 0.000138832 -0.00019711 0 0 0 0 
0.000208356 0.000184517 0 0.000184517 -0.000160678 0 0 0 0 
0.000150588 0.0001116 0 0.0001116 -0.000204634 0 0 0 0 
0.000121301 0.000148324 0 0.000148324 -0.000175347 0 0 0 0 
0.000157385 9.02546e-05 0 9.02546e-05 -0.000129894 0 0 0 0 
0.0001337 0.000119954 0 0.000119954 -0.000106209 0 0 0 0 
9.89059e-05 7.33495e-05 0 7.33495e-05 -0.000134564 0 0 0 0 
7.96573e-05 9.74865e-05 0 9.74865e-05 -0.000115316 0 0 0 0 
0.000103116 5.98898e-05 0 5.98898e-05 -8.75126e-05 0 0 0 0 
8.73991e-05 7.95976e-05 0 7.95976e-05 -7.17961e-05 0 0 0 0 
6.57448e-05 4.90867e-05 0 4.90867e-05 -9.04972e-05 0 0 0 0 
5.28633e-05 6.52395e-05 0 6.52395e-05 -7.76157e-05 0 0 0 0 
6.84315e-05 4.03802e-05 0 4.03802e-05 -6.00978e-05 0 0 0 0 
5.78349e-05 5.3668e-05 0 5.3668e-05 -4.95011e-05 0 0 0 0 
4.40028e-05 3.33183e-05 0 3.33183e-05 -6.20488e-05 0 0 0 0 
3.52593e-05 4.42823e-05 0 4.42823e-05 -5.33053e-05 0 0 0 0 
0.0469977 0.045616 0 0.045616 -0.0103271 0 0 0 0 
0.0361286 0.0508503 0 0.0508503 0.000542016 0 0 0 0 
-0.000872529 0.01905 0 0.01905 -0.0248123 0 0 0 0 
-0.00541166 0.0212359 0 0.0212359 -0.0202732 0 0 0 0 
0.00898726 0.0100606 0 0.0100606 -0.00365568 0 0 0 0 
0.00659008 0.011215 0 0.011215 -0.00125851 0 0 0 0 
0.00162198 0.00597314 0 0.00597314 -0.00588437 0 0 0 0 
0.000198729 0.00665854 0 0.00665854 -0.00446112 0 0 0 0 
0.00320145 0.00384257 0 0.00384257 -0.00162744 0 0 0 0 
0.00228586 0.00428349 0 0.00428349 -0.000711856 0 0 0 0 
0.000964099 0.00260093 0 0.00260093 -0.00230445 0 0 0 0 
0.000344362 0.00289938 0 0.00289938 -0.00168471 0 0 0 0 
0.00146497 0.00183279 0 0.00183279 -0.000838261 0 0 0 0 
0.00102826 0.00204309 0 0.00204309 -0.000401554 0 0 0 0 
0.000556135 0.00132842 0 0.00132842 -0.00111327 0 0 0 0 
0.000239606 0.00148085 0 0.00148085 -0.00079674 0 0 0 0 
0.000766552 0.000986194 0 0.000986194 -0.000472781 0 0 0 0 
0.000531567 0.00109936 0 0.00109936 -0.000237796 0 0 0 0 
0.000332343 0.000745226 0 0.000745226 -0.00060417 0 0 0 0 
0.000154774 0.000830738 0 0.000830738 -0.000426602 0 0 0 0 
0.000435463 0.000572061 0 0.000572061 -0.000283437 0 0 0 0 
0.000299155 0.000637703 0 0.000637703 -0.000147129 0 0 0 0 
0.000205528 0.000444457 0 0.000444457 -0.000353013 0 0 0 0 
9.96252e-05 0.000495457 0 0.000495457 -0.000247111 0 0 0 0 
0.000261205 0.000349133 0 0.000349133 -0.000177545 0 0 0 0 
0.000178015 0.000389195 0 0.000389195 -9.43557e-05 0 0 0 0 
0.000130558 0.00027663 0 0.00027663 -0.000217078 0 0 0 0 
6.46438e-05 0.000308372 0 0.000308372 -0.000151164 0 0 0 0 
0.000162671 0.000220949 0 0.000220949 -0.000114993 0 0 0 0 
0.000110024 0.000246303 0 0.000246303 -6.23459e-05 0 0 0 0 
8.45773e-05 0.000177611 0 0.000177611 -0.000138623 0 0 0 0 
4.22571e-05 0.000197991 0 0.000197991 -9.6303e-05 0 0 0 0 
0.000104 0.000143639 0 0.000143639 -7.6509e-05 0 0 0 0 
6.97745e-05 0.000160122 0 0.000160122 -4.22834e-05 0 0 0 0 
5.55203e-05 0.000116735 0 0.000116735 -9.11787e-05 0 0 0 0 
2.77053e-05 0.00013013 0 0.00013013 -6.33637e-05 0 0 0 0 
6.76913e-05 9.53141e-05 0 9.53141e-05 -5.20883e-05 0 0 0 0 
4.49804e-05 0.000106251 0 0.000106251 -2.93774e-05 0 0 0 0 
3.67104e-05 7.8121e-05 0 7.8121e-05 -6.14629e-05 0 0 0 0 
1.80962e-05 8.70851e-05 0 8.70851e-05 -4.28486e-05 0 0 0 0 
4.4547e-05 6.42647e-05 0 6.42647e-05 -3.62133e-05 0 0 0 0 
2.92344e-05 7.16388e-05 0 7.16388e-05 -2.09006e-05 0 0 0 0 
2.42953e-05 5.30258e-05 0 5.30258e-05 -4.23413e-05 0 0 0 0 
1.16606e-05 5.91104e-05 0 5.91104e-05 -2.97066e-05 0 0 0 0 
0.0243672 0.0535347 0 0.0535347 0.0123034 0 0 0 0 
0.0123034 0.0535347 0 0.0535347 0.0243672 0 0 0 0 
-0.0103234 0.022357 0 0.022357 -0.0153615 0 0 0 0 
-0.0153615 0.022357 0 0.022357 -0.0103234 0 0 0 0 
0.00399612 0.011807 0 0.011807 0.00133545 0 0 0 0 
0.00133545 0.011807 0 0.011807 0.00399612 0 0 0 0 
-0.00134135 0.00701006 0 0.00701006 -0.00292104 0 0 0 0 
-0.00292104 0.00701006 0 0.00701006 -0.00134135 0 0 0 0 
0.00129512 0.00450962 0 0.00450962 0.00027889 0 0 0 0 
0.00027889 0.00450962 0 0.00450962 0.00129512 0 0 0 0 
-0.000326248 0.00305245 0 0.00305245 -0.0010141 0 0 0 0 
-0.0010141 0.00305245 0 0.00305245 -0.000326248 0 0 0 0 
0.000555709 0.00215095 0 0.00215095 7.10012e-05 0 0 0 0 
7.10012e-05 0.00215095 0 0.00215095 0.000555709 0 0 0 0 
-0.000102907 0.00155903 0 0.00155903 -0.000454228 0 0 0 0 
-0.000454228 0.00155903 0 0.00155903 -0.000102907 0 0 0 0 
0.000277292 0.00115739 0 0.00115739 1.64787e-05 0 0 0 0 
1.64787e-05 0.00115739 0 0.00115739 0.000277292 0 0 0 0 
-3.73707e-05 0.000874594 0 0.000874594 -0.000234457 0 0 0 0 
-0.000234457 0.000874594 0 0.000874594 -3.73707e-05 0 0 0 0 
0.000151658 0.000671369 0 0.000671369 3.6797e-07 0 0 0 0 
3.67965e-07 0.000671369 0 0.000671369 0.000151658 0 0 0 0 
-1.49711e-05 0.000521613 0 0.000521613 -0.000132514 0 0 0 0 
-0.000132514 0.000521613 0 0.000521613 -1.49711e-05 0 0 0 0 
8.79964e-05 0.000409741 0 0.000409741 -4.33716e-06 0 0 0 0 
-4.33716e-06 0.000409741 0 0.000409741 8.79964e-05 0 0 0 0 
-6.68082e-06 0.000324652 0 0.000324652 -7.98397e-05 0 0 0 0 
-7.98397e-05 0.000324652 0 0.000324652 -6.68082e-06 0 0 0 0 
5.30558e-05 0.000259305 0 0.000259305 -5.37759e-06 0 0 0 0 
-5.3776e-06 0.000259305 0 0.000259305 5.30558e-05 0 0 0 0 
-3.53703e-06 0.000208443 0 0.000208443 -5.05089e-05 0 0 0 0 
-5.05089e-05 0.000208443 0 0.000208443 -3.53703e-06 0 0 0 0 
3.27394e-05 0.000168575 0 0.000168575 -5.24822e-06 0 0 0 0 
-5.24822e-06 0.000168575 0 0.000168575 3.27394e-05 0 0 0 0 
-2.39302e-06 0.000137 0 0.000137 -3.32654e-05 0 0 0 0 
-3.32654e-05 0.000137 0 0.000137 -2.39302e-06 0 0 0 0 
2.04051e-05 0.00011186 0 0.00011186 -4.80212e-06 0 0 0 0 
-4.80212e-06 0.00011186 0 0.00011186 2.04051e-05 0 0 0 0 
-2.04609e-06 9.16825e-05 0 9.16825e-05 -2.27064e-05 0 0 0 0 
-2.27064e-05 9.16825e-05 0 9.16825e-05 -2.04609e-06 0 0 0 0 
1.26648e-05 7.54207e-05 0 7.54207e-05 -4.33099e-06 0 0 0 0 
-4.33099e-06 7.54207e-05 0 7.54207e-05 1.26648e-05 0 0 0 0 
-2.01125e-06 6.22309e-05 0 6.22309e-05 -1.60347e-05 0 0 0 0 
-1.60347e-05 6.22309e-05 0 6.22309e-05 -2.01125e-06 0 0 0 0 
0.000542016 0.0508503 0 0.0508503 0.0361286 0 0 0 0 
-0.0103271 0.045616 0 0.045616 0.0469977 0 0 0 0 
-0.0202732 0.0212359 0 0.0212359 -0.00541166 0 0 0 0 
-0.0248123 0.01905 0 0.01905 -0.000872529 0 0 0 0 
-0.00125851 0.011215 0 0.011215 0.00659008 0 0 0 0 
-0.00365568 0.0100606 0 0.0100606 0.00898726 0 0 0 0 
-0.00446112 0.00665854 0 0.00665854 0.000198729 0 0 0 0 
-0.00588437 0.00597314 0 0.00597314 0.00162198 0 0 0 0 
-0.000711856 0.00428349 0 0.00428349 0.00228586 0 0 0 0 
-0.00162744 0.00384257 0 0.00384257 0.00320145 0 0 0 0 
-0.00168471 0.00289938 0 0.00289938 0.000344362 0 0 0 0 
-0.00230445 0.00260093 0 0.00260093 0.000964099 0 0 0 0 
-0.000401554 0.00204309 0 0.00204309 0.00102827 0 0 0 0 
-0.000838261 0.00183279 0 0.00183279 0.00146497 0 0 0 0 
-0.00079674 0.00148085 0 0.00148085 0.000239606 0 0 0 0 
-0.00111327 0.00132842 0 0.00132842 0.000556135 0 0 0 0 
-0.000237796 0.00109936 0 0.00109936 0.000531567 0 0 0 0 
-0.000472781 0.000986194 0 0.000986194 0.000766552 0 0 0 0 
-0.000426602 0.000830738 0 0.000830738 0.000154774 0 0 0 0 
-0.00060417 0.000745226 0 0.000745226 0.000332343 0 0 0 0 
-0.000147129 0.000637703 0 0.000637703 0.000299155 0 0 0 0 
-0.000283437 0.000572061 0 0.000572061 0.000435463 0 0 0 0 
-0.000247111 0.000495457 0 0.000495457 9.96252e-05 0 0 0 0 
-0.000353013 0.000444457 0 0.000444457 0.000205528 0 0 0 0 
-9.43557e-05 0.000389195 0 0.000389195 0.000178015 0 0 0 0 
-0.000177545 0.000349133 0 0.000349133 0.000261205 0 0 0 0 
-0.000151164 0.000308372 0 0.000308372 6.46438e-05 0 0 0 0 
-0.000217078 0.00027663 0 0.00027663 0.000130558 0 0 0 0 
-6.23459e-05 0.000246303 0 0.000246303 0.000110024 0 0 0 0 
-0.000114993 0.000220949 0 0.000220949 0.000162671 0 0 0 0 
-9.6303e-05 0.000197991 0 0.000197991 4.22571e-05 0 0 0 0 
-0.000138623 0.000177611 0 0.000177611 8.45773e-05 0 0 0 0 
-4.22834e-05 0.000160122 0 0.000160122 6.97745e-05 0 0 0 0 
-7.6509e-05 0.000143639 0 0.000143639 0.000104 0 0 0 0 
-6.33637e-05 0.00013013 0 0.00013013 2.77053e-05 0 0 0 0 
-9.11787e-05 0.000116735 0 0.000116735 5.55203e-05 0 0 0 0 
-2.93774e-05 0.000106251 0 0.000106251 4.49804e-05 0 0 0 0 
-5.20883e-05 9.53141e-05 0 9.53141e-05 6.76913e-05 0 0 0 0 
-4.28486e-05 8.70851e-05 0 8.70851e-05 1.80962e-05 0 0 0 0 
-6.14629e-05 7.8121e-05 0 7.8121e-05 3.67104e-05 0 0 0 0 
-2.09006e-05 7.16388e-05 0 7.16388e-05 2.92344e-05 0 0 0 0 
-3.62133e-05 6.42647e-05 0 6.42647e-05 4.4547e-05 0 0 0 0 
-2.97066e-05 5.91104e-05 0 5.91104e-05 1.16606e-05 0 0 0 0 
-4.23413e-05 5.30258e-05 0 5.30258e-05 2.42953e-05 0 0 0 0 
-0.019759 0.0380943 0 0.0380943 0.0564296 0 0 0 0 
-0.0272807 0.0286624 0 0.0286624 0.0639513 0 0 0 0 
-0.0287512 0.0159088 0 0.0159088 0.00306638 0 0 0 0 
-0.0318924 0.0119699 0 0.0119699 0.00620756 0 0 0 0 
-0.00573588 0.00840167 0 0.00840167 0.0110675 0 0 0 0 
-0.00739478 0.00632147 0 0.00632147 0.0127264 0 0 0 0 
-0.00711942 0.00498822 0 0.00498822 0.00285703 0 0 0 0 
-0.00810434 0.00375317 0 0.00375317 0.00384195 0 0 0 0 
-0.00242196 0.00320896 0 0.00320896 0.00399597 0 0 0 0 
-0.00305557 0.00241445 0 0.00241445 0.00462957 0 0 0 0 
-0.00284224 0.00217206 0 0.00217206 0.00150189 0 0 0 0 
-0.00327111 0.00163427 0 0.00163427 0.00193076 0 0 0 0 
-0.00121722 0.00153058 0 0.00153058 0.00184393 0 0 0 0 
-0.00151943 0.00115162 0 0.00115162 0.00214614 0 0 0 0 
-0.00138794 0.00110938 0 0.00110938 0.000830809 0 0 0 0 
-0.00160699 0.000834702 0 0.000834702 0.00104985 0 0 0 0 
-0.000676694 0.000823579 0 0.000823579 0.000970465 0 0 0 0 
-0.000839308 0.000619667 0 0.000619667 0.00113308 0 0 0 0 
-0.000758258 0.000622344 0 0.000622344 0.000486431 0 0 0 0 
-0.000881139 0.000468256 0 0.000468256 0.000609312 0 0 0 0 
-0.00040172 0.000477733 0 0.000477733 0.000553746 0 0 0 0 
-0.000496048 0.00035945 0 0.00035945 0.000648074 0 0 0 0 
-0.000444913 0.00037117 0 0.00037117 0.000297427 0 0 0 0 
-0.0005182 0.000279271 0 0.000279271 0.000370714 0 0 0 0 
-0.000249735 0.000291564 0 0.000291564 0.000333394 0 0 0 0 
-0.000307304 0.000219375 0 0.000219375 0.000390963 0 0 0 0 
-0.000274276 0.000231016 0 0.000231016 0.000187756 0 0 0 0 
-0.00031989 0.000173818 0 0.000173818 0.000233369 0 0 0 0 
-0.000160678 0.000184517 0 0.000184517 0.000208356 0 0 0 0 
-0.00019711 0.000138832 0 0.000138832 0.000244789 0 0 0 0 
-0.000175347 0.000148324 0 0.000148324 0.000121301 0 0 0 0 
-0.000204634 0.0001116 0 0.0001116 0.000150588 0 0 0 0 
-0.000106209 0.000119954 0 0.000119954 0.0001337 0 0 0 0 
-0.000129894 9.02546e-05 0 9.02546e-05 0.000157385 0 0 0 0 
-0.000115316 9.74865e-05 0 9.74865e-05 7.96573e-05 0 0 0 0 
-0.000134564 7.33495e-05 0 7.33495e-05 9.89059e-05 0 0 0 0 
-7.17961e-05 7.95976e-05 0 7.95976e-05 8.73991e-05 0 0 0 0 
-8.75126e-05 5.98898e-05 0 5.98898e-05 0.000103116 0 0 0 0 
-7.76157e-05 6.52395e-05 0 6.52395e-05 5.28633e-05 0 0 0 0 
-9.04972e-05 4.90867e-05 0 4.90867e-05 6.57448e-05 0 0 0 0 
-4.95011e-05 5.3668e-05 0 5.3668e-05 5.78349e-05 0 0 0 0 
-6.00978e-05 4.03802e-05 0 4.03802e-05 6.84315e-05 0 0 0 0 
-5.33053e-05 4.42823e-05 0 4.42823e-05 3.52593e-05 0 0 0 0 
-6.20488e-05 3.33183e-05 0 3.33183e-05 4.40028e-05 0 0 0 0 
-0.032515 0.0177933 0 0.0177933 0.0691856 0 0 0 0 
-0.0351994 0.00603191 0 0.00603191 0.07187 0 0 0 0 
-0.0340784 0.00743077 0 0.00743077 0.00839349 0 0 0 0 
-0.0351994 0.00251903 0 0.00251903 0.00951456 0 0 0 0 
-0.0085492 0.00392429 0 0.00392429 0.0138808 0 0 0 0 
-0.00914125 0.00133033 0 0.00133033 0.0144728 0 0 0 0 
-0.00878974 0.00232993 0 0.00232993 0.00452735 0 0 0 0 
-0.00914125 0.000789844 0 0.000789844 0.00487886 0 0 0 0 
-0.00349649 0.00149886 0 0.00149886 0.0050705 0 0 0 0 
-0.00372262 0.000508113 0 0.000508113 0.00529663 0 0 0 0 
-0.00356956 0.00101454 0 0.00101454 0.00222921 0 0 0 0 
-0.00372262 0.000343928 0 0.000343928 0.00238227 0 0 0 0 
-0.00172974 0.00071491 0 0.00071491 0.00235645 0 0 0 0 
-0.0018376 0.000242354 0 0.000242354 0.00246431 0 0 0 0 
-0.00175942 0.000518173 0 0.000518173 0.00120229 0 0 0 0 
-0.0018376 0.00017566 0 0.00017566 0.00128046 0 0 0 0 
-0.000952471 0.000384682 0 0.000384682 0.00124624 0 0 0 0 
-0.00101051 0.000130407 0 0.000130407 0.00130428 0 0 0 0 
-0.000966652 0.000290688 0 0.000290688 0.000694824 0 0 0 0 
-0.00101051 9.85431e-05 0 9.85431e-05 0.00073868 0 0 0 0 
-0.00056169 0.000223142 0 0.000223142 0.000713716 0 0 0 0 
-0.000595356 7.56451e-05 0 7.56451e-05 0.000747382 0 0 0 0 
-0.0005692 0.000173368 0 0.000173368 0.000421714 0 0 0 0 
-0.000595356 5.87717e-05 0 5.87717e-05 0.00044787 0 0 0 0 
-0.000347366 0.000136185 0 0.000136185 0.000431025 0 0 0 0 
-0.000367912 4.61668e-05 0 4.61668e-05 0.000451571 0 0 0 0 
-0.000351632 0.000107904 0 0.000107904 0.000265112 0 0 0 0 
-0.000367912 3.65794e-05 0 3.65794e-05 0.000281391 0 0 0 0 
-0.000222464 8.61851e-05 0 8.61851e-05 0.000270142 0 0 0 0 
-0.000235466 2.92167e-05 0 2.92167e-05 0.000283144 0 0 0 0 
-0.000225014 6.92801e-05 0 6.92801e-05 0.000170968 0 0 0 0 
-0.000235466 2.34859e-05 0 2.34859e-05 0.00018142 0 0 0 0 
-0.000146376 5.6029e-05 0 5.6029e-05 0.000173867 0 0 0 0 
-0.000154829 1.89938e-05 0 1.89938e-05 0.00018232 0 0 0 0 
-0.000147959 4.55345e-05 0 4.55345e-05 0.000112301 0 0 0 0 
-0.000154829 1.54362e-05 0 1.54362e-05 0.000119171 0 0 0 0 
-9.84496e-05 3.71789e-05 0 3.71789e-05 0.000114053 0 0 0 0 
-0.000104059 1.26036e-05 0 1.26036e-05 0.000119662 0 0 0 0 
-9.94614e-05 3.04724e-05 0 3.04724e-05 7.47089e-05 0 0 0 0 
-0.000104059 1.03301e-05 0 1.03301e-05 7.93063e-05 0 0 0 0 
-6.7472e-05 2.50675e-05 0 2.50675e-05 7.58057e-05 0 0 0 0 
-7.12539e-05 8.49788e-06 0 8.49788e-06 7.95876e-05 0 0 0 0 
-6.81333e-05 2.06836e-05 0 2.06836e-05 5.00874e-05 0 0 0 0 
-7.12539e-05 7.01174e-06 0 7.01174e-06 5.32079e-05 0 0 0 0 
-0.0351994 -0.00603191 0 -0.00603191 0.07187 0 0 0 0 
-0.032515 -0.0177933 0 -0.0177933 0.0691856 0 0 0 0 
-0.0351994 -0.00251903 0 -0.00251903 0.00951456 0 0 0 0 
-0.0340784 -0.00743077 0 -0.00743077 0.00839349 0 0 0 0 
-0.00914125 -0.00133033 0 -0.00133033 0.0144728 0 0 0 0 
-0.0085492 -0.00392429 0 -0.00392429 0.0138808 0 0 0 0 
-0.00914125 -0.000789844 0 -0.000789844 0.00487886 0 0 0 0 
-0.00878974 -0.00232993 0 -0.00232993 0.00452735 0 0 0 0 
-0.00372262 -0.000508113 0 -0.000508113 0.00529663 0 0 0 0 
-0.00349649 -0.00149886 0 -0.00149886 0.0050705 0 0 0 0 
-0.00372262 -0.000343928 0 -0.000343928 0.00238227 0 0 0 0 
-0.00356956 -0.00101454 0 -0.00101454 0.00222921 0 0 0 0 
-0.0018376 -0.000242354 0 -0.000242354 0.00246431 0 0 0 0 
-0.00172974 -0.00071491 0 -0.00071491 0.00235645 0 0 0 0 
-0.0018376 -0.00017566 0 -0.00017566 0.00128046 0 0 0 0 
-0.00175942 -0.000518173 0 -0.000518173 0.00120229 0 0 0 0 
-0.00101051 -0.000130407 0 -0.000130407 0.00130428 0 0 0 0 
-0.000952471 -0.000384682 0 -0.000384682 0.00124624 0 0 0 0 
-0.00101051 -9.85431e-05 0 -9.85431e-05 0.00073868 0 0 0 0 
-0.000966652 -0.000290688 0 -0.000290688 0.000694824 0 0 0 0 
-0.000595356 -7.56451e-05 0 -7.56451e-05 0.000747382 0 0 0 0 
-0.00056169 -0.000223142 0 -0.000223142 0.000713716 0 0 0 0 
-0.000595356 -5.87717e-05 0 -5.87717e-05 0.00044787 0 0 0 0 
-0.0005692 -0.000173368 0 -0.000173368 0.000421714 0 0 0 0 
-0.000367912 -4.61668e-05 0 -4.61668e-05 0.000451571 0 0 0 0 
-0.000347366 -0.000136185 0 -0.000136185 0.000431025 0 0 0 0 
-0.000367912 -3.65794e-05 0 -3.65794e-05 0.000281391 0 0 0 0 
-0.000351632 -0.000107904 0 -0.000107904 0.000265112 0 0 0 0 
-0.000235466 -2.92167e-05 0 -2.92167e-05 0.000283144 0 0 0 0 
-0.000222464 -8.61851e-05 0 -8.61851e-05 0.000270142 0 0 0 0 
-0.000235466 -2.34859e-05 0 -2.34859e-05 0.00018142 0 0 0 0 
-0.000225014 -6.92801e-05 0 -6.92801e-05 0.000170968 0 0 0 0 
-0.000154829 -1.89938e-05 0 -1.89938e-05 0.00018232 0 0 0 0 
-0.000146376 -5.6029e-05 0 -5.6029e-05 0.000173867 0 0 0 0 
-0.000154829 -1.54362e-05 0 -1.54362e-05 0.000119171 0 0 0 0 
-0.000147959 -4.55345e-05 0 -4.55345e-05 0.000112301 0 0 0 0 
-0.000104059 -1.26036e-05 0 -1.26036e-05 0.000119662 0 0 0 0 
-9.84496e-05 -3.71789e-05 0 -3.71789e-05 0.000114053 0 0 0 0 
-0.000104059 -1.03301e-05 0 -1.03301e-05 7.93063e-05 0 0 0 0 
-9.94614e-05 -3.04724e-05 0 -3.04724e-05 7.47089e-05 0 0 0 0 
-7.12539e-05 -8.49788e-06 0 -8.49788e-06 7.95876e-05 0 0 0 0 
-6.7472e-05 -2.50675e-05 0 -2.50675e-05 7.58057e-05 0 0 0 0 
-7.12539e-05 -7.01174e-06 0 -7.01174e-06 5.32079e-05 0 0 0 0 
-6.81333e-05 -2.06836e-05 0 -2.06836e-05 5.00874e-05 0 0 0 0 
-0.0272807 -0.0286624 0 -0.0286624 0.0639513 0 0 0 0 
-0.019759 -0.0380943 0 -0.0380943 0.0564296 0 0 0 0 
-0.0318924 -0.0119699 0 -0.0119699 0.00620756 0 0 0 0 
-0.0287512 -0.0159088 0 -0.0159088 0.00306638 0 0 0 0 
-0.00739478 -0.00632147 0 -0.00632147 0.0127264 0 0 0 0 
-0.00573588 -0.00840167 0 -0.00840167 0.0110675 0 0 0 0 
-0.00810434 -0.00375317 0 -0.00375317 0.00384195 0 0 0 0 
-0.00711942 -0.00498822 0 -0.00498822 0.00285703 0 0 0 0 
-0.00305557 -0.00241445 0 -0.00241445 0.00462957 0 0 0 0 
-0.00242196 -0.00320896 0 -0.00320896 0.00399597 0 0 0 0 
-0.00327111 -0.00163427 0 -0.00163427 0.00193076 0 0 0 0 
-0.00284224 -0.00217206 0 -0.00217206 0.00150189 0 0 0 0 
-0.00151943 -0.00115162 0 -0.00115162 0.00214614 0 0 0 0 
-0.00121722 -0.00153058 0 -0.00153058 0.00184393 0 0 0 0 
-0.00160699 -0.000834702 0 -0.000834702 0.00104985 0 0 0 0 
-0.00138794 -0.00110938 0 -0.00110938 0.000830809 0 0 0 0 
-0.000839308 -0.000619667 0 -0.000619667 0.00113308 0 0 0 0 
-0.000676694 -0.000823579 0 -0.000823579 0.000970465 0 0 0 0 
-0.000881139 -0.000468256 0 -0.000468256 0.000609312 0 0 0 0 
-0.000758258 -0.000622344 0 -0.000622344 0.000486431 0 0 0 0 
-0.000496048 -0.00035945 0 -0.00035945 0.000648074 0 0 0 0 
-0.00040172 -0.000477733 0 -0.000477733 0.000553746 0 0 0 0 
-0.0005182 -0.000279271 0 -0.000279271 0.000370714 0 0 0 0 
-0.000444913 -0.00037117 0 -0.00037117 0.000297427 0 0 0 0 
-0.000307304 -0.000219375 0 -0.000219375 0.000390963 0 0 0 0 
-0.000249735 -0.000291564 0 -0.000291564 0.000333394 0 0 0 0 
-0.00031989 -0.000173818 0 -0.000173818 0.000233369 0 0 0 0 
-0.000274276 -0.000231016 0 -0.000231016 0.000187756 0 0 0 0 
-0.00019711 -0.000138832 0 -0.000138832 0.000244789 0 0 0 0 
-0.000160678 -0.000184517 0 -0.000184517 0.000208356 0 0 0 0 
-0.000204634 -0.0001116 0 -0.0001116 0.000150588 0 0 0 0 
-0.000175347 -0.000148324 0 -0.000148324 0.000121301 0 0 0 0 
-0.000129894 -9.02546e-05 0 -9.02546e-05 0.000157385 0 0 0 0 
-0.000106209 -0.000119954 0 -0.000119954 0.0001337 0 0 0 0 
-0.000134564 -7.33495e-05 0 -7.33495e-05 9.89059e-05 0 0 0 0 
-0.000115316 -9.74865e-05 0 -9.74865e-05 7.96573e-05 0 0 0 0 
-8.75126e-05 -5.98898e-05 0 -5.98898e-05 0.000103116 0 0 0 0 
-7.17961e-05 -7.95976e-05 0 -7.95976e-05 8.73991e-05 0 0 0 0 
-9.04972e-05 -4.90867e-05 0 -4.90867e-05 6.57448e-05 0 0 0 0 
-7.76157e-05 -6.52395e-05 0 -6.52395e-05 5.28633e-05 0 0 0 0 
-6.00978e-05 -4.03802e-05 0 -4.03802e-05 6.84315e-05 0 0 0 0 
-4.95011e-05 -5.3668e-05 0 -5.3668e-05 5.78349e-05 0 0 0 0 
-6.20488e-05 -3.33183e-05 0 -3.33183e-05 4.40028e-05 0 0 0 0 
-5.33053e-05 -4.42823e-05 0 -4.42823e-05 3.52593e-05 0 0 0 0 
-0.0103271 -0.045616 0 -0.045616 0.0469977 0 0 0 0 
0.000542016 -0.0508503 0 -0.0508503 0.0361286 0 0 0 0 
-0.0248123 -0.01905 0 -0.01905 -0.000872529 0 0 0 0 
-0.0202732 -0.0212359 0 -0.0212359 -0.00541166 0 0 0 0 
-0.00365568 -0.0100606 0 -0.0100606 0.00898726 0 0 0 0 
-0.00125851 -0.011215 0 -0.011215 0.00659008 0 0 0 0 
-0.00588437 -0.00597314 0 -0.00597314 0.00162198 0 0 0 0 
-0.00446112 -0.00665854 0 -0.00665854 0.000198729 0 0 0 0 
-0.00162744 -0.00384257 0 -0.00384257 0.00320145 0 0 0 0 
-0.000711856 -0.00428349 0 -0.00428349 0.00228586 0 0 0 0 
-0.00230445 -0.00260093 0 -0.00260093 0.000964099 0 0 0 0 
-0.00168471 -0.00289938 0 -0.00289938 0.000344362 0 0 0 0 
-0.000838261 -0.00183279 0 -0.00183279 0.00146497 0 0 0 0 
-0.000401554 -0.00204309 0 -0.00204309 0.00102826 0 0 0 0 
-0.00111327 -0.00132842 0 -0.00132842 0.000556135 0 0 0 0 
-0.00079674 -0.00148085 0 -0.00148085 0.000239606 0 0 0 0 
-0.000472781 -0.000986194 0 -0.000986194 0.000766552 0 0 0 0 
-0.000237796 -0.00109936 0 -0.00109936 0.000531567 0 0 0 0 
-0.00060417 -0.000745226 0 -0.000745226 0.000332343 0 0 0 0 
-0.000426602 -0.000830738 0 -0.000830738 0.000154774 0 0 0 0 
-0.000283437 -0.000572061 0 -0.000572061 0.000435463 0 0 0 0 
-0.000147129 -0.000637703 0 -0.000637703 0.000299155 0 0 0 0 
-0.000353013 -0.000444457 0 -0.000444457 0.000205528 0 0 0 0 
-0.000247111 -0.000495457 0 -0.000495457 9.96252e-05 0 0 0 0 
-0.000177545 -0.000349133 0 -0.000349133 0.000261205 0 0 0 0 
-9.43557e-05 -0.000389195 0 -0.000389195 0.000178015 0 0 0 0 
-0.000217078 -0.00027663 0 -0.00027663 0.000130558 0 0 0 0 
-0.000151164 -0.000308372 0 -0.000308372 6.46438e-05 0 0 0 0 
-0.000114993 -0.000220949 0 -0.000220949 0.000162671 0 0 0 0 
-6.23459e-05 -0.000246303 0 -0.000246303 0.000110024 0 0 0 0 
-0.000138623 -0.000177611 0 -0.000177611 8.45773e-05 0 0 0 0 
-9.6303e-05 -0.000197991 0 -0.000197991 4.22571e-05 0 0 0 0 
-7.6509e-05 -0.000143639 0 -0.000143639 0.000104 0 0 0 0 
-4.22834e-05 -0.000160122 0 -0.000160122 6.97745e-05 0 0 0 0 
-9.11787e-05 -0.000116735 0 -0.000116735 5.55203e-05 0 0 0 0 
-6.33637e-05 -0.00013013 0 -0.00013013 2.77053e-05 0 0 0 0 
-5.20883e-05 -9.53141e-05 0 -9.53141e-05 6.76913e-05 0 0 0 0 
-2.93774e-05 -0.000106251 0 -0.000106251 4.49804e-05 0 0 0 0 
-6.14629e-05 -7.8121e-05 0 -7.8121e-05 3.67104e-05 0 0 0 0 
-4.28486e-05 -8.70851e-05 0 -8.70851e-05 1.80962e-05 0 0 0 0 
-3.62133e-05 -6.42647e-05 0 -6.42647e-05 4.4547e-05 0 0 0 0 
-2.09006e-05 -7.16388e-05 0 -7.16388e-05 2.92344e-05 0 0 0 0 
-4.23413e-05 -5.30258e-05 0 -5.30258e-05 2.42953e-05 0 0 0 0 
-2.97066e-05 -5.91104e-05 0 -5.91104e-05 1.16606e-05 0 0 0 0 
0.0123034 -0.0535347 0 -0.0535347 0.0243672 0 0 0 0 
0.0243672 -0.0535347 0 -0.0535347 0.0123034 0 0 0 0 
-0.0153615 -0.022357 0 -0.022357 -0.0103234 0 0 0 0 
-0.0103234 -0.022357 0 -0.022357 -0.0153615 0 0 0 0 
0.00133545 -0.011807 0 -0.011807 0.00399612 0 0 0 0 
0.00399612 -0.011807 0 -0.011807 0.00133545 0 0 0 0 
-0.00292104 -0.00701006 0 -0.00701006 -0.00134135 0 0 0 0 
-0.00134135 -0.00701006 0 -0.00701006 -0.00292104 0 0 0 0 
0.00027889 -0.00450962 0 -0.00450962 0.00129512 0 0 0 0 
0.00129512 -0.00450962 0 -0.00450962 0.00027889 0 0 0 0 
-0.0010141 -0.00305245 0 -0.00305245 -0.000326248 0 0 0 0 
-0.000326248 -0.00305245 0 -0.00305245 -0.0010141 0 0 0 0 
7.10012e-05 -0.00215095 0 -0.00215095 0.000555709 0 0 0 0 
0.000555709 -0.00215095 0 -0.00215095 7.10012e-05 0 0 0 0 
-0.000454228 -0.00155903 0 -0.00155903 -0.000102907 0 0 0 0 
-0.000102907 -0.00155903 0 -0.00155903 -0.000454228 0 0 0 0 
1.64787e-05 -0.00115739 0 -0.00115739 0.000277292 0 0 0 0 
0.000277292 -0.00115739 0 -0.00115739 1.64787e-05 0 0 0 0 
-0.000234457 -0.000874594 0 -0.000874594 -3.73707e-05 0 0 0 0 
-3.73707e-05 -0.000874594 0 -0.000874594 -0.000234457 0 0 0 0 
3.6797e-07 -0.000671369 0 -0.000671369 0.000151658 0 0 0 0 
0.000151658 -0.000671369 0 -0.000671369 3.67965e-07 0 0 0 0 
-0.000132514 -0.000521613 0 -0.000521613 -1.49711e-05 0 0 0 0 
-1.49711e-05 -0.000521613 0 -0.000521613 -0.000132514 0 0 0 0 
-4.33716e-06 -0.000409741 0 -0.000409741 8.79964e-05 0 0 0 0 
8.79964e-05 -0.000409741 0 -0.000409741 -4.33716e-06 0 0 0 0 
-7.98397e-05 -0.000324652 0 -0.000324652 -6.68082e-06 0 0 0 0 
-6.68082e-06 -0.000324652 0 -0.000324652 -7.98397e-05 0 0 0 0 
-5.37759e-06 -0.000259305 0 -0.000259305 5.30558e-05 0 0 0 0 
5.30558e-05 -0.000259305 0 -0.000259305 -5.3776e-06 0 0 0 0 
-5.05089e-05 -0.000208443 0 -0.000208443 -3.53703e-06 0 0 0 0 
-3.53703e-06 -0.000208443 0 -0.000208443 -5.05089e-05 0 0 0 0 
-5.24822e-06 -0.000168575 0 -0.000168575 3.27394e-05 0 0 0 0 
3.27394e-05 -0.000168575 0 -0.000168575 -5.24822e-06 0 0 0 0 
-3.32654e-05 -0.000137 0 -0.000137 -2.39302e-06 0 0 0 0 
-2.39302e-06 -0.000137 0 -0.000137 -3.32654e-05 0 0 0 0 
-4.80212e-06 -0.00011186 0 -0.00011186 2.04051e-05 0 0 0 0 
2.04051e-05 -0.00011186 0 -0.00011186 -4.80212e-06 0 0 0 0 
-2.27064e-05 -9.16825e-05 0 -9.16825e-05 -2.04609e-06 0 0 0 0 
-2.04609e-06 -9.16825e-05 0 -9.16825e-05 -2.27064e-05 0 0 0 0 
-4.33099e-06 -7.54207e-05 0 -7.54207e-05 1.26648e-05 0 0 0 0 
1.26648e-05 -7.54207e-05 0 -7.54207e-05 -4.33099e-06 0 0 0 0 
-1.60347e-05 -6.22309e-05 0 -6.22309e-05 -2.01125e-06 0 0 0 0 
-2.01125e-06 -6.22309e-05 0 -6.22309e-05 -1.60347e-05 0 0 0 0 
0.0361286 -0.0508503 0 -0.0508503 0.000542016 0 0 0 0 
0.0469977 -0.045616 0 -0.045616 -0.0103271 0 0 0 0 
-0.00541166 -0.0212359 0 -0.0212359 -0.0202732 0 0 0 0 
-0.000872529 -0.01905 0 -0.01905 -0.0248123 0 0 0 0 
0.00659008 -0.011215 0 -0.011215 -0.00125851 0 0 0 0 
0.00898726 -0.0100606 0 -0.0100606 -0.00365568 0 0 0 0 
0.000198729 -0.00665854 0 -0.00665854 -0.00446112 0 0 0 0 
0.00162198 -0.00597314 0 -0.00597314 -0.00588437 0 0 0 0 
0.00228586 -0.00428349 0 -0.00428349 -0.000711856 0 0 0 0 
0.00320145 -0.00384257 0 -0.00384257 -0.00162744 0 0 0 0 
0.000344362 -0.00289938 0 -0.00289938 -0.00168471 0 0 0 0 
0.000964099 -0.00260093 0 -0.00260093 -0.00230445 0 0 0 0 
0.00102827 -0.00204309 0 -0.00204309 -0.000401554 0 0 0 0 
0.00146497 -0.00183279 0 -0.00183279 -0.000838261 0 0 0 0 
0.000239606 -0.00148085 0 -0.00148085 -0.00079674 0 0 0 0 
0.000556135 -0.00132842 0 -0.00132842 -0.00111327 0 0 0 0 
0.000531567 -0.00109936 0 -0.00109936 -0.000237796 0 0 0 0 
0.000766552 -0.000986194 0 -0.000986194 -0.000472781 0 0 0 0 
0.000154774 -0.000830738 0 -0.000830738 -0.000426602 0 0 0 0 
0.000332343 -0.000745226 0 -0.000745226 -0.00060417 0 0 0 0 
0.000299155 -0.000637703 0 -0.000637703 -0.000147129 0 0 0 0 
0.000435463 -0.000572061 0 -0.000572061 -0.000283437 0 0 0 0 
9.96252e-05 -0.000495457 0 -0.000495457 -0.000247111 0 0 0 0 
0.000205528 -0.000444457 0 -0.000444457 -0.000353013 0 0 0 0 
0.000178015 -0.000389195 0 -0.000389195 -9.43557e-05 0 0 0 0 
0.000261205 -0.000349133 0 -0.000349133 -0.000177545 0 0 0 0 
6.46438e-05 -0.000308372 0 -0.000308372 -0.000151164 0 0 0 0 
0.000130558 -0.00027663 0 -0.00027663 -0.000217078 0 0 0 0 
0.000110024 -0.000246303 0 -0.000246303 -6.23459e-05 0 0 0 0 
0.000162671 -0.000220949 0 -0.000220949 -0.000114993 0 0 0 0 
4.22571e-05 -0.000197991 0 -0.000197991 -9.6303e-05 0 0 0 0 
8.45773e-05 -0.000177611 0 -0.000177611 -0.000138623 0 0 0 0 
6.97745e-05 -0.000160122 0 -0.000160122 -4.22834e-05 0 0 0 0 
0.000104 -0.000143639 0 -0.000143639 -7.6509e-05 0 0 0 0 
2.77053e-05 -0.00013013 0 -0.00013013 -6.33637e-05 0 0 0 0 
5.55203e-05 -0.000116735 0 -0.000116735 -9.11787e-05 0 0 0 0 
4.49804e-05 -0.000106251 0 -0.000106251 -2.93774e-05 0 0 0 0 
6.76913e-05 -9.53141e-05 0 -9.53141e-05 -5.20883e-05 0 0 0 0 
1.80962e-05 -8.70851e-05 0 -8.70851e-05 -4.28486e-05 0 0 0 0 
3.67104e-05 -7.8121e-05 0 -7.8121e-05 -6.14629e-05 0 0 0 0 
2.92344e-05 -7.16388e-05 0 -7.16388e-05 -2.09006e-05 0 0 0 0 
4.4547e-05 -6.42647e-05 0 -6.42647e-05 -3.62133e-05 0 0 0 0 
1.16606e-05 -5.91104e-05 0 -5.91104e-05 -2.97066e-05 0 0 0 0 
2.42953e-05 -5.30258e-05 0 -5.30258e-05 -4.23413e-05 0 0 0 0 
0.0564296 -0.0380943 0 -0.0380943 -0.019759 0 0 0 0 
0.0639513 -0.0286624 0 -0.0286624 -0.0272807 0 0 0 0 
0.00306638 -0.0159088 0 -0.0159088 -0.0287512 0 0 0 0 
0.00620756 -0.0119699 0 -0.0119699 -0.0318924 0 0 0 0 
0.0110675 -0.00840167 0 -0.00840167 -0.00573588 0 0 0 0 
0.0127264 -0.00632147 0 -0.00632147 -0.00739478 0 0 0 0 
0.00285703 -0.00498822 0 -0.00498822 -0.00711942 0 0 0 0 
0.00384195 -0.00375317 0 -0.00375317 -0.00810434 0 0 0 0 
0.00399597 -0.00320896 0 -0.00320896 -0.00242196 0 0 0 0 
0.00462957 -0.00241445 0 -0.00241445 -0.00305557 0 0 0 0 
0.00150189 -0.00217206 0 -0.00217206 -0.00284224 0 0 0 0 
0.00193076 -0.00163427 0 -0.00163427 -0.00327111 0 0 0 0 
0.00184393 -0.00153058 0 -0.00153058 -0.00121722 0 0 0 0 
0.00214614 -0.00115162 0 -0.00115162 -0.00151943 0 0 0 0 
0.000830809 -0.00110938 0 -0.00110938 -0.00138794 0 0 0 0 
0.00104985 -0.000834702 0 -0.000834702 -0.00160699 0 0 0 0 
0.000970465 -0.000823579 0 -0.000823579 -0.000676694 0 0 0 0 
0.00113308 -0.000619667 0 -0.000619667 -0.000839308 0 0 0 0 
0.000486431 -0.000622344 0 -0.000622344 -0.000758258 0 0 0 0 
0.000609312 -0.000468256 0 -0.000468256 -0.000881139 0 0 0 0 
0.000553746 -0.000477733 0 -0.000477733 -0.00040172 0 0 0 0 
0.000648074 -0.00035945 0 -0.00035945 -0.000496048 0 0 0 0 
0.000297427 -0.00037117 0 -0.00037117 -0.000444913 0 0 0 0 
0.000370714 -0.000279271 0 -0.000279271 -0.0005182 0 0 0 0 
0.000333394 -0.000291564 0 -0.000291564 -0.000249735 0 0 0 0 
0.000390963 -0.000219375 0 -0.000219375 -0.000307304 0 0 0 0 
0.000187756 -0.000231016 0 -0.000231016 -0.000274276 0 0 0 0 
0.000233369 -0.000173818 0 -0.000173818 -0.00031989 0 0 0 0 
0.000208356 -0.000184517 0 -0.000184517 -0.000160678 0 0 0 0 
0.000244789 -0.000138832 0 -0.000138832 -0.00019711 0 0 0 0 
0.000121301 -0.000148324 0 -0.000148324 -0.000175347 0 0 0 0 
0.000150588 -0.0001116 0 -0.0001116 -0.000204634 0 0 0 0 
0.0001337 -0.000119954 0 -0.000119954 -0.000106209 0 0 0 0 
0.000157385 -9.02546e-05 0 -9.02546e-05 -0.000129894 0 0 0 0 
7.96573e-05 -9.74865e-05 0 -9.74865e-05 -0.000115316 0 0 0 0 
9.89059e-05 -7.33495e-05 0 -7.33495e-05 -0.000134564 0 0 0 0 
8.73991e-05 -7.95976e-05 0 -7.95976e-05 -7.17961e-05 0 0 0 0 
0.000103116 -5.98898e-05 0 -5.98898e-05 -8.75126e-05 0 0 0 0 
5.28633e-05 -6.52395e-05 0 -6.52395e-05 -7.76157e-05 0 0 0 0 
6.57448e-05 -4.90867e-05 0 -4.90867e-05 -9.04972e-05 0 0 0 0 
5.78349e-05 -5.3668e-05 0 -5.3668e-05 -4.95011e-05 0 0 0 0 
6.84315e-05 -4.03802e-05 0 -4.03802e-05 -6.00978e-05 0 0 0 0 
3.52593e-05 -4.42823e-05 0 -4.42823e-05 -5.33053e-05 0 0 0 0 
4.40028e-05 -3.33183e-05 0 -3.33183e-05 -6.20488e-05 0 0 0 0 
0.0691856 -0.0177933 0 -0.0177933 -0.032515 0 0 0 0 
0.07187 -0.00603191 0 -0.00603191 -0.0351994 0 0 0 0 
0.00839349 -0.00743077 0 -0.00743077 -0.0340784 0 0 0 0 
0.00951456 -0.00251903 0 -0.00251903 -0.0351994 0 0 0 0 
0.0138808 -0.00392429 0 -0.00392429 -0.0085492 0 0 0 0 
0.0144728 -0.00133033 0 -0.00133033 -0.00914125 0 0 0 0 
0.00452735 -0.00232993 0 -0.00232993 -0.00878974 0 0 0 0 
0.00487886 -0.000789844 0 -0.000789844 -0.00914125 0 0 0 0 
0.0050705 -0.00149886 0 -0.00149886 -0.00349649 0 0 0 0 
0.00529663 -0.000508113 0 -0.000508113 -0.00372262 0 0 0 0 
0.00222921 -0.00101454 0 -0.00101454 -0.00356956 0 0 0 0 
0.00238227 -0.000343928 0 -0.000343928 -0.00372262 0 0 0 0 
0.00235645 -0.00071491 0 -0.00071491 -0.00172974 0 0 0 0 
0.00246431 -0.000242354 0 -0.000242354 -0.0018376 0 0 0 0 
0.00120229 -0.000518173 0 -0.000518173 -0.00175942 0 0 0 0 
0.00128046 -0.00017566 0 -0.00017566 -0.0018376 0 0 0 0 
0.00124624 -0.000384682 0 -0.000384682 -0.000952471 0 0 0 0 
0.00130428 -0.000130407 0 -0.000130407 -0.00101051 0 0 0 0 
0.000694824 -0.000290688 0 -0.000290688 -0.000966652 0 0 0 0 
0.00073868 -9.85431e-05 0 -9.85431e-05 -0.00101051 0 0 0 0 
0.000713716 -0.000223142 0 -0.000223142 -0.00056169 0 0 0 0 
0.000747382 -7.56451e-05 0 -7.56451e-05 -0.000595356 0 0 0 0 
0.000421714 -0.000173368 0 -0.000173368 -0.0005692 0 0 0 0 
0.00044787 -5.87717e-05 0 -5.87717e-05 -0.000595356 0 0 0 0 
0.000431025 -0.000136185 0 -0.000136185 -0.000347366 0 0 0 0 
0.000451571 -4.61668e-05 0 -4.61668e-05 -0.000367912 0 0 0 0 
0.000265112 -0.000107904 0 -0.000107904 -0.000351632 0 0 0 0 
0.000281391 -3.65794e-05 0 -3.65794e-05 -0.000367912 0 0 0 0 
0.000270142 -8.61851e-05 0 -8.61851e-05 -0.000222464 0 0 0 0 
0.000283144 -2.92167e-05 0 -2.92167e-05 -0.000235466 0 0 0 0 
0.000170968 -6.92801e-05 0 -6.92801e-05 -0.000225014 0 0 0 0 
0.00018142 -2.34859e-05 0 -2.34859e-05 -0.000235466 0 0 0 0 
0.000173867 -5.6029e-05 0 -5.6029e-05 -0.000146376 0 0 0 0 
0.00018232 -1.89938e-05 0 -1.89938e-05 -0.000154829 0 0 0 0 
0.000112301 -4.55345e-05 0 -4.55345e-05 -0.000147959 0 0 0 0 
0.000119171 -1.54362e-05 0 -1.54362e-05 -0.000154829 0 0 0 0 
0.000114053 -3.71789e-05 0 -3.71789e-05 -9.84496e-05 0 0 0 0 
0.000119662 -1.26036e-05 0 -1.26036e-05 -0.000104059 0 0 0 0 
7.47089e-05 -3.04724e-05 0 -3.04724e-05 -9.94614e-05 0 0 0 0 
7.93063e-05 -1.03301e-05 0 -1.03301e-05 -0.000104059 0 0 0 0 
7.58057e-05 -2.50675e-05 0 -2.50675e-05 -6.7472e-05 0 0 0 0 
7.95876e-05 -8.49788e-06 0 -8.49788e-06 -7.12539e-05 0 0 0 0 
5.00874e-05 -2.06836e-05 0 -2.06836e-05 -6.81333e-05 0 0 0 0 
5.32079e-05 -7.01174e-06 0 -7.01174e-06 -7.12539e-05 0 0 0 0 
0.07187 0.00603191 0 0.00603191 -0.0351994 0 0 0 0 
0.0691856 0.0177933 0 0.0177933 -0.032515 0 0 0 0 
0.00951456 0.00251903 0 0.00251903 -0.0351994 0 0 0 0 
0.00839349 0.00743077 0 0.00743077 -0.0340784 0 0 0 0 
0.0144728 0.00133033 0 0.00133033 -0.00914125 0 0 0 0 
0.0138808 0.00392429 0 0.00392429 -0.0085492 0 0 0 0 
0.00487886 0.000789844 0 0.000789844 -0.00914125 0 0 0 0 
0.00452735 0.00232993 0 0.00232993 -0.00878974 0 0 0 0 
0.00529663 0.000508113 0 0.000508113 -0.00372262 0 0 0 0 
0.0050705 0.00149886 0 0.00149886 -0.00349649 0 0 0 0 
0.00238227 0.000343928 0 0.000343928 -0.00372262 0 0 0 0 
0.00222921 0.00101454 0 0.00101454 -0.00356956 0 0 0 0 
0.00246431 0.000242354 0 0.000242354 -0.0018376 0 0 0 0 
0.00235645 0.00071491 0 0.00071491 -0.00172974 0 0 0 0 
0.00128046 0.00017566 0 0.00017566 -0.0018376 0 0 0 0 
0.00120229 0.000518173 0 0.000518173 -0.00175942 0 0 0 0 
0.00130428 0.000130407 0 0.000130407 -0.00101051 0 0 0 0 
0.00124624 0.000384682 0 0.000384682 -0.000952471 0 0 0 0 
0.00073868 9.85431e-05 0 9.85431e-05 -0.00101051 0 0 0 0 
0.000694824 0.000290688 0 0.000290688 -0.000966652 0 0 0 0 
0.000747382 7.56451e-05 0 7.56451e-05 -0.000595356 0 0 0 0 
0.000713716 0.000223142 0 0.000223142 -0.00056169 0 0 0 0 
0.00044787 5.87717e-05 0 5.87717e-05 -0.000595356 0 0 0 0 
0.000421714 0.000173368 0 0.000173368 -0.0005692 0 0 0 0 
0.000451571 4.61668e-05 0 4.61668e-05 -0.000367912 0 0 0 0 
0.000431025 0.000136185 0 0.000136185 -0.000347366 0 0 0 0 
0.000281391 3.65794e-05 0 3.65794e-05 -0.000367912 0 0 0 0 
0.000265112 0.000107904 0 0.000107904 -0.000351632 0 0 0 0 
0.000283144 2.92167e-05 0 2.92167e-05 -0.000235466 0 0 0 0 
0.000270142 8.61851e-05 0 8.61851e-05 -0.000222464 0 0 0 0 
0.00018142 2.34859e-05 0 2.34859e-05 -0.000235466 0 0 0 0 
0.000170968 6.92801e-05 0 6.92801e-05 -0.000225014 0 0 0 0 
0.00018232 1.89938e-05 0 1.89938e-05 -0.000154829 0 0 0 0 
0.000173867 5.6029e-05 0 5.6029e-05 -0.000146376 0 0 0 0 
0.000119171 1.54362e-05 0 1.54362e-05 -0.000154829 0 0 0 0 
0.000112301 4.55345e-05 0 4.55345e-05 -0.000147959 0 0 0 0 
0.000119662 1.26036e-05 0 1.26036e-05 -0.000104059 0 0 0 0 
0.000114053 3.71789e-05 0 3.71789e-05 -9.84496e-05 0 0 0 0 
7.93063e-05 1.03301e-05 0 1.03301e-05 -0.000104059 0 0 0 0 
7.47089e-05 3.04724e-05 0 3.04724e-05 -9.94614e-05 0 0 0 0 
7.95876e-05 8.49788e-06 0 8.49788e-06 -7.12539e-05 0 0 0 0 
7.58057e-05 2.50675e-05 0 2.50675e-05 -6.7472e-05 0 0 0 0 
5.32079e-05 7.01174e-06 0 7.01174e-06 -7.12539e-05 0 0 0 0 
5.00874e-05 2.06836e-05 0 2.06836e-05 -6.81333e-05 0 0 0 0 
0.0639513 0.0286624 0 0.0286624 -0.0272807 0 0 0 0 
0.0564296 0.0380943 0 0.0380943 -0.019759 0 0 0 0 
0.00620756 0.0119699 0 0.0119699 -0.0318924 0 0 0 0 
0.00306638 0.0159088 0 0.0159088 -0.0287512 0 0 0 0 
0.0127264 0.00632147 0 0.00632147 -0.00739478 0 0 0 0 
0.0110675 0.00840167 0 0.00840167 -0.00573588 0 0 0 0 
0.00384195 0.00375317 0 0.00375317 -0.00810434 0 0 0 0 
0.00285703 0.00498822 0 0.00498822 -0.00711942 0 0 0 0 
0.00462957 0.00241445 0 0.00241445 -0.00305557 0 0 0 0 
0.00399597 0.00320896 0 0.00320896 -0.00242196 0 0 0 0 
0.00193076 0.00163427 0 0.00163427 -0.00327111 0 0 0 0 
0.00150189 0.00217206 0 0.00217206 -0.00284224 0 0 0 0 
0.00214614 0.00115162 0 0.00115162 -0.00151943 0 0 0 0 
0.00184393 0.00153058 0 0.00153058 -0.00121722 0 0 0 0 
0.00104985 0.000834702 0 0.000834702 -0.00160699 0 0 0 0 
0.000830809 0.00110938 0 0.00110938 -0.00138794 0 0 0 0 
0.00113308 0.000619667 0 0.000619667 -0.000839308 0 0 0 0 
0.000970465 0.000823579 0 0.000823579 -0.000676694 0 0 0 0 
0.000609312 0.000468256 0 0.000468256 -0.000881139 0 0 0 0 
0.000486431 0.000622344 0 0.000622344 -0.000758258 0 0 0 0 
0.000648074 0.00035945 0 0.00035945 -0.000496048 0 0 0 0 
0.000553746 0.000477733 0 0.000477733 -0.00040172 0 0 0 0 
0.000370714 0.000279271 0 0.000279271 -0.0005182 0 0 0 0 
0.000297427 0.00037117 0 0.00037117 -0.000444913 0 0 0 0 
0.000390963 0.000219375 0 0.000219375 -0.000307304 0 0 0 0 
0.000333394 0.000291564 0 0.000291564 -0.000249735 0 0 0 0 
0.000233369 0.000173818 0 0.000173818 -0.00031989 0 0 0 0 
0.000187756 0.000231016 0 0.000231016 -0.000274276 0 0 0 0 
0.000244789 0.000138832 0 0.000138832 -0.00019711 0 0 0 0 
0.000208356 0.000184517 0 0.000184517 -0.000160678 0 0 0 0 
0.000150588 0.0001116 0 0.0001116 -0.000204634 0 0 0 0 
0.000121301 0.000148324 0 0.000148324 -0.000175347 0 0 0 0 
0.000157385 9.02546e-05 0 9.02546e-05 -0.000129894 0 0 0 0 
0.0001337 0.000119954 0 0.000119954 -0.000106209 0 0 0 0 
9.89059e-05 7.33495e-05 0 7.33495e-05 -0.000134564 0 0 0 0 
7.96573e-05 9.74865e-05 0 9.74865e-05 -0.000115316 0 0 0 0 
0.000103116 5.98898e-05 0 5.98898e-05 -8.75126e-05 0 0 0 0 
8.73991e-05 7.95976e-05 0 7.95976e-05 -7.17961e-05 0 0 0 0 
6.57448e-05 4.90867e-05 0 4.90867e-05 -9.04972e-05 0 0 0 0 
5.28633e-05 6.52395e-05 0 6.52395e-05 -7.76157e-05 0 0 0 0 
6.84315e-05 4.03802e-05 0 4.03802e-05 -6.00978e-05 0 0 0 0 
5.78349e-05 5.3668e-05 0 5.3668e-05 -4.95011e-05 0 0 0 0 
4.40028e-05 3.33183e-05 0 3.33183e-05 -6.20488e-05 0 0 0 0 
3.52593e-05 4.42823e-05 0 4.42823e-05 -5.33053e-05 0 0 0 0 
0.0469977 0.045616 0 0.045616 -0.0103271 0 0 0 0 
0.0361286 0.0508503 0 0.0508503 0.000542016 0 0 0 0 
-0.000872529 0.01905 0 0.01905 -0.0248123 0 0 0 0 
-0.00541166 0.0212359 0 0.0212359 -0.0202732 0 0 0 0 
0.00898726 0.0100606 0 0.0100606 -0.00365568 0 0 0 0 
0.00659008 0.011215 0 0.011215 -0.00125851 0 0 0 0 
0.00162198 0.00597314 0 0.00597314 -0.00588437 0 0 0 0 
0.000198729 0.00665854 0 0.00665854 -0.00446112 0 0 0 0 
0.00320145 0.00384257 0 0.00384257 -0.00162744 0 0 0 0 
0.00228586 0.00428349 0 0.00428349 -0.000711856 0 0 0 0 
0.000964099 0.00260093 0 0.00260093 -0.00230445 0 0 0 0 
0.000344362 0.00289938 0 0.00289938 -0.00168471 0 0 0 0 
0.00146497 0.00183279 0 0.00183279 -0.000838261 0 0 0 0 
0.00102826 0.00204309 0 0.00204309 -0.000401554 0 0 0 0 
0.000556135 0.00132842 0 0.00132842 -0.00111327 0 0 0 0 
0.000239606 0.00148085 0 0.00148085 -0.00079674 0 0 0 0 
0.000766552 0.000986194 0 0.000986194 -0.000472781 0 0 0 0 
0.000531567 0.00109936 0 0.00109936 -0.000237796 0 0 0 0 
0.000332343 0.000745226 0 0.000745226 -0.00060417 0 0 0 0 
0.000154774 0.000830738 0 0.000830738 -0.000426602 0 0 0 0 
0.000435463 0.000572061 0 0.000572061 -0.000283437 0 0 0 0 
0.000299155 0.000637703 0 0.000637703 -0.000147129 0 0 0 0 
0.000205528 0.000444457 0 0.000444457 -0.000353013 0 0 0 0 
9.96252e-05 0.000495457 0 0.000495457 -0.000247111 0 0 0 0 
0.000261205 0.000349133 0 0.000349133 -0.000177545 0 0 0 0 
0.000178015 0.000389195 0 0.000389195 -9.43557e-05 0 0 0 0 
0.000130558 0.00027663 0 0.00027663 -0.000217078 0 0 0 0 
6.46438e-05 0.000308372 0 0.000308372 -0.000151164 0 0 0 0 
0.000162671 0.000220949 0 0.000220949 -0.000114993 0 0 0 0 
0.000110024 0.000246303 0 0.000246303 -6.23459e-05 0 0 0 0 
8.45773e-05 0.000177611 0 0.000177611 -0.000138623 0 0 0 0 
4.22571e-05 0.000197991 0 0.000197991 -9.6303e-05 0 0 0 0 
0.000104 0.000143639 0 0.000143639 -7.6509e-05 0 0 0 0 
6.97745e-05 0.000160122 0 0.000160122 -4.22834e-05 0 0 0 0 
5.55203e-05 0.000116735 0 0.000116735 -9.11787e-05 0 0 0 0 
2.77053e-05 0.00013013 0 0.00013013 -6.33637e-05 0 0 0 0 
6.76913e-05 9.53141e-05 0 9.53141e-05 -5.20883e-05 0 0 0 0 
4.49804e-05 0.000106251 0 0.000106251 -2.93774e-05 0 0 0 0 
3.67104e-05 7.8121e-05 0 7.8121e-05 -6.14629e-05 0 0 0 0 
1.80962e-05 8.70851e-05 0 8.70851e-05 -4.28486e-05 0 0 0 0 
4.4547e-05 6.42647e-05 0 6.42647e-05 -3.62133e-05 0 0 0 0 
2.92344e-05 7.16388e-05 0 7.16388e-05 -2.09006e-05 0 0 0 0 
2.42953e-05 5.30258e-05 0 5.30258e-05 -4.23413e-05 0 0 0 0 
1.16606e-05 5.91104e-05 0 5.91104e-05 -2.97066e-05 0 0 0 0 
0.0243672 0.0535347 0 0.0535347 0.0123034 0 0 0 0 
0.0123034 0.0535347 0 0.0535347 0.0243672 0 0 0 0 
-0.0103234 0.022357 0 0.022357 -0.0153615 0 0 0 0 
-0.0153615 0.022357 0 0.022357 -0.0103234 0 0 0 0 
0.00399612 0.011807 0 0.011807 0.00133545 0 0 0 0 
0.00133545 0.011807 0 0.011807 0.00399612 0 0 0 0 
-0.00134135 0.00701006 0 0.00701006 -0.00292104 0 0 0 0 
-0.00292104 0.00701006 0 0.00701006 -0.00134135 0 0 0 0 
0.00129512 0.00450962 0 0.00450962 0.00027889 0 0 0 0 
0.00027889 0.00450962 0 0.00450962 0.00129512 0 0 0 0 
-0.000326248 0.00305245 0 0.00305245 -0.0010141 0 0 0 0 
-0.0010141 0.00305245 0 0.00305245 -0.000326248 0 0 0 0 
0.000555709 0.00215095 0 0.00215095 7.10012e-05 0 0 0 0 
7.10012e-05 0.00215095 0 0.00215095 0.000555709 0 0 0 0 
-0.000102907 0.00155903 0 0.00155903 -0.000454228 0 0 0 0 
-0.000454228 0.00155903 0 0.00155903 -0.000102907 0 0 0 0 
0.000277292 0.00115739 0 0.00115739 1.64787e-05 0 0 0 0 
1.64787e-05 0.00115739 0 0.00115739 0.000277292 0 0 0 0 
-3.73707e-05 0.000874594 0 0.000874594 -0.000234457 0 0 0 0 
-0.000234457 0.000874594 0 0.000874594 -3.73707e-05 0 0 0 0 
0.000151658 0.000671369 0 0.000671369 3.6797e-07 0 0 0 0 
3.67965e-07 0.000671369 0 0.000671369 0.000151658 0 0 0 0 
-1.49711e-05 0.000521613 0 0.000521613 -0.000132514 0 0 0 0 
-0.000132514 0.000521613 0 0.000521613 -1.49711e-05 0 0 0 0 
8.79964e-05 0.000409741 0 0.000409741 -4.33716e-06 0 0 0 0 
-4.33716e-06 0.000409741 0 0.000409741 8.79964e-05 0 0 0 0 
-6.68082e-06 0.000324652 0 0.000324652 -7.98397e-05 0 0 0 0 
-7.98397e-05 0.000324652 0 0.000324652 -6.68082e-06 0 0 0 0 
5.30558e-05 0.000259305 0 0.000259305 -5.37759e-06 0 0 0 0 
-5.3776e-06 0.000259305 0 0.000259305 5.30558e-05 0 0 0 0 
-3.53703e-06 0.000208443 0 0.000208443 -5.05089e-05 0 0 0 0 
-5.05089e-05 0.000208443 0 0.000208443 -3.53703e-06 0 0 0 0 
3.27394e-05 0.000168575 0 0.000168575 -5.24822e-06 0 0 0 0 
-5.24822e-06 0.000168575 0 0.000168575 3.27394e-05 0 0 0 0 
-2.39302e-06 0.000137 0 0.000137 -3.32654e-05 0 0 0 0 
-3.32654e-05 0.000137 0 0.000137 -2.39302e-06 0 0 0 0 
2.04051e-05 0.00011186 0 0.00011186 -4.80212e-06 0 0 0 0 
-4.80212e-06 0.00011186 0 0.00011186 2.04051e-05 0 0 0 0 
-2.04609e-06 9.16825e-05 0 9.16825e-05 -2.27064e-05 0 0 0 0 
-2.27064e-05 9.16825e-05 0 9.16825e-05 -2.04609e-06 0 0 0 0 
1.26648e-05 7.54207e-05 0 7.54207e-05 -4.33099e-06 0 0 0 0 
-4.33099e-06 7.54207e-05 0 7.54207e-05 1.26648e-05 0 0 0 0 
-2.01125e-06 6.22309e-05 0 6.22309e-05 -1.60347e-05 0 0 0 0 
-1.60347e-05 6.22309e-05 0 6.22309e-05 -2.01125e-06 0 0 0 0 
0.000542016 0.0508503 0 0.0508503 0.0361286 0 0 0 0 
-0.0103271 0.045616 0 0.045616 0.0469977 0 0 0 0 
-0.0202732 0.0212359 0 0.0212359 -0.00541166 0 0 0 0 
-0.0248123 0.01905 0 0.01905 -0.000872529 0 0 0 0 
-0.00125851 0.011215 0 0.011215 0.00659008 0 0 0 0 
-0.00365568 0.0100606 0 0.0100606 0.00898726 0 0 0 0 
-0.00446112 0.00665854 0 0.00665854 0.000198729 0 0 0 0 
-0.00588437 0.00597314 0 0.00597314 0.00162198 0 0 0 0 
-0.000711856 0.00428349 0 0.00428349 0.00228586 0 0 0 0 
-0.00162744 0.00384257 0 0.00384257 0.00320145 0 0 0 0 
-0.00168471 0.00289938 0 0.00289938 0.000344362 0 0 0 0 
-0.00230445 0.00260093 0 0.00260093 0.000964099 0 0 0 0 
-0.000401554 0.00204309 0 0.00204309 0.00102827 0 0 0 0 
-0.000838261 0.00183279 0 0.00183279 0.00146497 0 0 0 0 
-0.00079674 0.00148085 0 0.00148085 0.000239606 0 0 0 0 
-0.00111327 0.00132842 0 0.00132842 0.000556135 0 0 0 0 
-0.000237796 0.00109936 0 0.00109936 0.000531567 0 0 0 0 
-0.000472781 0.000986194 0 0.000986194 0.000766552 0 0 0 0 
-0.000426602 0.000830738 0 0.000830738 0.000154774 0 0 0 0 
-0.00060417 0.000745226 0 0.000745226 0.000332343 0 0 0 0 
-0.000147129 0.000637703 0 0.000637703 0.000299155 0 0 0 0 
-0.000283437 0.000572061 0 0.000572061 0.000435463 0 0 0 0 
-0.000247111 0.000495457 0 0.000495457 9.96252e-05 0 0 0 0 
-0.000353013 0.000444457 0 0.000444457 0.000205528 0 0 0 0 
-9.43557e-05 0.000389195 0 0.000389195 0.000178015 0 0 0 0 
-0.000177545 0.000349133 0 0.000349133 0.000261205 0 0 0 0 
-0.000151164 0.000308372 0 0.000308372 6.46438e-05 0 0 0 0 
-0.000217078 0.00027663 0 0.00027663 0.000130558 0 0 0 0 
-6.23459e-05 0.000246303 0 0.000246303 0.000110024 0 0 0 0 
-0.000114993 0.000220949 0 0.000220949 0.000162671 0 0 0 0 
-9.6303e-05 0.000197991 0 0.000197991 4.22571e-05 0 0 0 0 
-0.000138623 0.000177611 0 0.000177611 8.45773e-05 0 0 0 0 
-4.22834e-05 0.000160122 0 0.000160122 6.97745e-05 0 0 0 0 
-7.6509e-05 0.000143639 0 0.000143639 0.000104 0 0 0 0 
-6.33637e-05 0.00013013 0 0.00013013 2.77053e-05 0 0 0 0 
-9.11787e-05 0.000116735 0 0.000116735 5.55203e-05 0 0 0 0 
-2.93774e-05 0.000106251 0 0.000106251 4.49804e-05 0 0 0 0 
-5.20883e-05 9.53141e-05 0 9.53141e-05 6.76913e-05 0 0 0 0 
-4.28486e-05 8.70851e-05 0 8.70851e-05 1.80962e-05 0 0 0 0 
-6.14629e-05 7.8121e-05 0 7.8121e-05 3.67104e-05 0 0 0 0 
-2.09006e-05 7.16388e-05 0 7.16388e-05 2.92344e-05 0 0 0 0 
-3.62133e-05 6.42647e-05 0 6.42647e-05 4.4547e-05 0 0 0 0 
-2.97066e-05 5.91104e-05 0 5.91104e-05 1.16606e-05 0 0 0 0 
-4.23413e-05 5.30258e-05 0 5.30258e-05 2.42953e-05 0 0 0 0 
-0.019759 0.0380943 0 0.0380943 0.0564296 0 0 0 0 
-0.0272807 0.0286624 0 0.0286624 0.0639513 0 0 0 0 
-0.0287512 0.0159088 0 0.0159088 0.00306638 0 0 0 0 
-0.0318924 0.0119699 0 0.0119699 0.00620756 0 0 0 0 
-0.00573588 0.00840167 0 0.00840167 0.0110675 0 0 0 0 
-0.00739478 0.00632147 0 0.00632147 0.0127264 0 0 0 0 
-0.00711942 0.00498822 0 0.00498822 0.00285703 0 0 0 0 
-0.00810434 0.00375317 0 0.00375317 0.00384195 0 0 0 0 
-0.00242196 0.00320896 0 0.00320896 0.00399597 0 0 0 0 
-0.00305557 0.00241445 0 0.00241445 0.00462957 0 0 0 0 
-0.00284224 0.00217206 0 0.00217206 0.00150189 0 0 0 0 
-0.00327111 0.00163427 0 0.00163427 0.00193076 0 0 0 0 
-0.00121722 0.00153058 0 0.00153058 0.00184393 0 0 0 0 
-0.00151943 0.00115162 0 0.00115162 0.00214614 0 0 0 0 
-0.00138794 0.00110938 0 0.00110938 0.000830809 0 0 0 0 
-0.00160699 0.000834702 0 0.000834702 0.00104985 0 0 0 0 
-0.000676694 0.000823579 0 0.000823579 0.000970465 0 0 0 0 
-0.000839308 0.000619667 0 0.000619667 0.00113308 0 0 0 0 
-0.000758258 0.000622344 0 0.000622344 0.000486431 0 0 0 0 
-0.000881139 0.000468256 0 0.000468256 0.000609312 0 0 0 0 
-0.00040172 0.000477733 0 0.000477733 0.000553746 0 0 0 0 
-0.000496048 0.00035945 0 0.00035945 0.000648074 0 0 0 0 
-0.000444913 0.00037117 0 0.00037117 0.000297427 0 0 0 0 
-0.0005182 0.000279271 0 0.000279271 0.000370714 0 0 0 0 
-0.000249735 0.000291564 0 0.000291564 0.000333394 0 0 0 0 
-0.000307304 0.000219375 0 0.000219375 0.000390963 0 0 0 0 
-0.000274276 0.000231016 0 0.000231016 0.000187756 0 0 0 0 
-0.00031989 0.000173818 0 0.000173818 0.000233369 0 0 0 0 
-0.000160678 0.000184517 0 0.000184517 0.000208356 0 0 0 0 
-0.00019711 0.000138832 0 0.000138832 0.000244789 0 0 0 0 
-0.000175347 0.000148324 0 0.000148324 0.000121301 0 0 0 0 
-0.000204634 0.0001116 0 0.0001116 0.000150588 0 0 0 0 
-0.000106209 0.000119954 0 0.000119954 0.0001337 0 0 0 0 
-0.000129894 9.02546e-05 0 9.02546e-05 0.000157385 0 0 0 0 
-0.000115316 9.74865e-05 0 9.74865e-05 7.96573e-05 0 0 0 0 
-0.000134564 7.33495e-05 0 7.33495e-05 9.89059e-05 0 0 0 0 
-7.17961e-05 7.95976e-05 0 7.95976e-05 8.73991e-05 0 0 0 0 
-8.75126e-05 5.98898e-05 0 5.98898e-05 0.000103116 0 0 0 0 
-7.76157e-05 6.52395e-05 0 6.52395e-05 5.28633e-05 0 0 0 0 
-9.04972e-05 4.90867e-05 0 4.90867e-05 6.57448e-05 0 0 0 0 
-4.95011e-05 5.3668e-05 0 5.3668e-05 5.78349e-05 0 0 0 0 
-6.00978e-05 4.03802e-05 0 4.03802e-05 6.84315e-05 0 0 0 0 
-5.33053e-05 4.42823e-05 0 4.42823e-05 3.52593e-05 0 0 0 0 
-6.20488e-05 3.33183e-05 0 3.33183e-05 4.40028e-05 0 0 0 0 
-0.032515 0.0177933 0 0.0177933 0.0691856 0 0 0 0 
-0.0351994 0.00603191 0 0.00603191 0.07187 0 0 0 0 
-0.0340784 0.00743077 0 0.00743077 0.00839349 0 0 0 0 
-0.0351994 0.00251903 0 0.00251903 0.00951456 0 0 0 0 
-0.0085492 0.00392429 0 0.00392429 0.0138808 0 0 0 0 
-0.00914125 0.00133033 0 0.00133033 0.0144728 0 0 0 0 
-0.00878974 0.00232993 0 0.00232993 0.00452735 0 0 0 0 
-0.00914125 0.000789844 0 0.000789844 0.00487886 0 0 0 0 
-0.00349649 0.00149886 0 0.00149886 0.0050705 0 0 0 0 
-0.00372262 0.000508113 0 0.000508113 0.00529663 0 0 0 0 
-0.00356956 0.00101454 0 0.00101454 0.00222921 0 0 0 0 
-0.00372262 0.000343928 0 0.000343928 0.00238227 0 0 0 0 
-0.00172974 0.00071491 0 0.00071491 0.00235645 0 0 0 0 
-0.0018376 0.000242354 0 0.000242354 0.00246431 0 0 0 0 
-0.00175942 0.000518173 0 0.000518173 0.00120229 0 0 0 0 
-0.0018376 0.00017566 0 0.00017566 0.00128046 0 0 0 0 
-0.000952471 0.000384682 0 0.000384682 0.00124624 0 0 0 0 
-0.00101051 0.000130407 0 0.000130407 0.00130428 0 0 0 0 
-0.000966652 0.000290688 0 0.000290688 0.000694824 0 0 0 0 
-0.00101051 9.85431e-05 0 9.85431e-05 0.00073868 0 0 0 0 
-0.00056169 0.000223142 0 0.000223142 0.000713716 0 0 0 0 
-0.000595356 7.56451e-05 0 7.56451e-05 0.000747382 0 0 0 0 
-0.0005692 0.000173368 0 0.000173368 0.000421714 0 0 0 0 
-0.000595356 5.87717e-05 0 5.87717e-05 0.00044787 0 0 0 0 
-0.000347366 0.000136185 0 0.000136185 0.000431025 0 0 0 0 
-0.000367912 4.61668e-05 0 4.61668e-05 0.000451571 0 0 0 0 
-0.000351632 0.000107904 0 0.000107904 0.000265112 0 0 0 0 
-0.000367912 3.65794e-05 0 3.65794e-05 0.000281391 0 0 0 0 
-0.000222464 8.61851e-05 0 8.61851e-05 0.000270142 0 0 0 0 
-0.000235466 2.92167e-05 0 2.92167e-05 0.000283144 0 0 0 0 
-0.000225014 6.92801e-05 0 6.92801e-05 0.000170968 0 0 0 0 
-0.000235466 2.34859e-05 0 2.34859e-05 0.00018142 0 0 0 0 
-0.000146376 5.6029e-05 0 5.6029e-05 0.000173867 0 0 0 0 
-0.000154829 1.89938e-05 0 1.89938e-05 0.00018232 0 0 0 0 
-0.000147959 4.55345e-05 0 4.55345e-05 0.000112301 0 0 0 0 
-0.000154829 1.54362e-05 0 1.54362e-05 0.000119171 0 0 0 0 
-9.84496e-05 3.71789e-05 0 3.71789e-05 0.000114053 0 0 0 0 
-0.000104059 1.26036e-05 0 1.26036e-05 0.000119662 0 0 0 0 
-9.94614e-05 3.04724e-05 0 3.04724e-05 7.47089e-05 0 0 0 0 
-0.000104059 1.03301e-05 0 1.03301e-05 7.93063e-05 0 0 0 0 
-6.7472e-05 2.50675e-05 0 2.50675e-05 7.58057e-05 0 0 0 0 
-7.12539e-05 8.49788e-06 0 8.49788e-06 7.95876e-05 0 0 0 0 
-6.81333e-05 2.06836e-05 0 2.06836e-05 5.00874e-05 0 0 0 0 
-7.12539e-05 7.01174e-06 0 7.01174e-06 5.32079e-05 0 0 0 0 

TENSORS StrainPlastic float
-0.047423 -0.00603191 0 -0.00603191 0.0596465 0 0 0 -0.0122235 
-0.0447385 -0.0177933 0 -0.0177933 0.056962 0 0 0 -0.0122235 
-0.0266378 -0.00251903 0 -0.00251903 0.0180762 0 0 0 0.00856162 
-0.0255167 -0.00743077 0 -0.00743077 0.0169551 0 0 0 0.00856162 
-0.0109184 -0.00133033 0 -0.00133033 0.0126956 0 0 0 -0.00177719 
-0.0103264 -0.00392429 0 -0.00392429 0.0121036 0 0 0 -0.00177719 
-0.00772046 -0.000789844 0 -0.000789844 0.00629966 0 0 0 0.0014208 
-0.00736894 -0.00232993 0 -0.00232993 0.00594815 0 0 0 0.0014208 
-0.00424729 -0.000508113 0 -0.000508113 0.00477196 0 0 0 -0.000524669 
-0.00402116 -0.00149886 0 -0.00149886 0.00454583 0 0 0 -0.000524669 
-0.00327584 -0.000343928 0 -0.000343928 0.00282905 0 0 0 0.000446784 
-0.00312277 -0.00101454 0 -0.00101454 0.00267599 0 0 0 0.000446784 
-0.0020465 -0.000242354 0 -0.000242354 0.0022554 0 0 0 -0.000208904 
-0.00193864 -0.00071491 0 -0.00071491 0.00214755 0 0 0 -0.000208904 
-0.00165189 -0.00017566 0 -0.00017566 0.00146617 0 0 0 0.000185711 
-0.00157371 -0.000518173 0 -0.000518173 0.001388 0 0 0 0.000185711 
-0.00110843 -0.000130407 0 -0.000130407 0.00120636 0 0 0 -9.79237e-05 
-0.00105039 -0.000384682 0 -0.000384682 0.00114832 0 0 0 -9.79237e-05 
-0.000919898 -9.85431e-05 0 -9.85431e-05 0.000829289 0 0 0 9.06092e-05 
-0.000876043 -0.000290688 0 -0.000290688 0.000785434 0 0 0 9.06092e-05 
-0.000646031 -7.56451e-05 0 -7.56451e-05 0.000696706 0 0 0 -5.06754e-05 
-0.000612366 -0.000223142 0 -0.000223142 0.000663041 0 0 0 -5.06754e-05 
-0.000546194 -5.87717e-05 0 -5.87717e-05 0.000497032 0 0 0 4.91618e-05 
-0.000520038 -0.000173368 0 -0.000173368 0.000470876 0 0 0 4.91618e-05 
-0.000395798 -4.61668e-05 0 -4.61668e-05 0.000423685 0 0 0 -2.78864e-05 
-0.000375252 -0.000136185 0 -0.000136185 0.000403138 0 0 0 -2.78864e-05 
-0.000339072 -3.65794e-05 0 -3.65794e-05 0.000310231 0 0 0 2.88402e-05 
-0.000322792 -0.000107904 0 -0.000107904 0.000293952 0 0 0 2.88402e-05 
-0.000251359 -2.92167e-05 0 -2.92167e-05 0.000267252 0 0 0 -1.58927e-05 
-0.000238356 -8.61851e-05 0 -8.61851e-05 0.000254249 0 0 0 -1.58927e-05 
-0.000217451 -2.34859e-05 0 -2.34859e-05 0.000199436 0 0 0 1.80153e-05 
-0.000206999 -6.92801e-05 0 -6.92801e-05 0.000188983 0 0 0 1.80153e-05 
-0.000163993 -1.89938e-05 0 -1.89938e-05 0.000173156 0 0 0 -9.16372e-06 
-0.00015554 -5.6029e-05 0 -5.6029e-05 0.000164703 0 0 0 -9.16372e-06 
-0.000142943 -1.54362e-05 0 -1.54362e-05 0.000131057 0 0 0 1.18861e-05 
-0.000136073 -4.55345e-05 0 -4.55345e-05 0.000124187 0 0 0 1.18861e-05 
-0.00010926 -1.26036e-05 0 -1.26036e-05 0.000114461 0 0 0 -5.201e-06 
-0.000103651 -3.71789e-05 0 -3.71789e-05 0.000108852 0 0 0 -5.201e-06 
-9.58079e-05 -1.03301e-05 0 -1.03301e-05 8.75571e-05 0 0 0 8.25082e-06 
-9.12106e-05 -3.04724e-05 0 -3.04724e-05 8.29597e-05 0 0 0 8.25082e-06 
-7.40318e-05 -8.49788e-06 0 -8.49788e-06 7.68097e-05 0 0 0 -2.77792e-06 
-7.02499e-05 -2.50675e-05 0 -2.50675e-05 7.30278e-05 0 0 0 -2.77792e-06 
-6.52385e-05 -7.01174e-06 0 -7.01174e-06 5.92232e-05 0 0 0 6.01532e-06 
-6.2118e-05 -2.06836e-05 0 -2.06836e-05 5.61027e-05 0 0 0 6.01532e-06 
-0.0395042 -0.0286624 0 -0.0286624 0.0517277 0 0 0 -0.0122235 
-0.0319825 -0.0380943 0 -0.0380943 0.0442061 0 0 0 -0.0122235 
-0.0233308 -0.0119699 0 -0.0119699 0.0147692 0 0 0 0.00856162 
-0.0201896 -0.0159088 0 -0.0159088 0.011628 0 0 0 0.00856162 
-0.00917197 -0.00632147 0 -0.00632147 0.0109492 0 0 0 -0.00177719 
-0.00751307 -0.00840167 0 -0.00840167 0.00929026 0 0 0 -0.00177719 
-0.00668354 -0.00375317 0 -0.00375317 0.00526274 0 0 0 0.0014208 
-0.00569862 -0.00498822 0 -0.00498822 0.00427783 0 0 0 0.0014208 
-0.00358024 -0.00241445 0 -0.00241445 0.0041049 0 0 0 -0.000524669 
-0.00294663 -0.00320896 0 -0.00320896 0.0034713 0 0 0 -0.000524669 
-0.00282433 -0.00163427 0 -0.00163427 0.00237754 0 0 0 0.000446784 
-0.00239545 -0.00217206 0 -0.00217206 0.00194867 0 0 0 0.000446784 
-0.00172834 -0.00115162 0 -0.00115162 0.00193724 0 0 0 -0.000208904 
-0.00142613 -0.00153058 0 -0.00153058 0.00163503 0 0 0 -0.000208904 
-0.00142128 -0.000834702 0 -0.000834702 0.00123557 0 0 0 0.000185711 
-0.00120223 -0.00110938 0 -0.00110938 0.00101652 0 0 0 0.000185711 
-0.000937232 -0.000619667 0 -0.000619667 0.00103516 0 0 0 -9.79237e-05 
-0.000774617 -0.000823579 0 -0.000823579 0.000872541 0 0 0 -9.79237e-05 
-0.00079053 -0.000468256 0 -0.000468256 0.000699921 0 0 0 9.06092e-05 
-0.000667649 -0.000622344 0 -0.000622344 0.00057704 0 0 0 9.06092e-05 
-0.000546723 -0.00035945 0 -0.00035945 0.000597399 0 0 0 -5.06754e-05 
-0.000452395 -0.000477733 0 -0.000477733 0.000503071 0 0 0 -5.06754e-05 
-0.000469038 -0.000279271 0 -0.000279271 0.000419876 0 0 0 4.91618e-05 
-0.000395751 -0.00037117 0 -0.00037117 0.000346589 0 0 0 4.91618e-05 
-0.00033519 -0.000219375 0 -0.000219375 0.000363076 0 0 0 -2.78864e-05 
-0.000277621 -0.000291564 0 -0.000291564 0.000305507 0 0 0 -2.78864e-05 
-0.00029105 -0.000173818 0 -0.000173818 0.00026221 0 0 0 2.88402e-05 
-0.000245436 -0.000231016 0 -0.000231016 0.000216596 0 0 0 2.88402e-05 
-0.000213003 -0.000138832 0 -0.000138832 0.000228896 0 0 0 -1.58927e-05 
-0.00017657 -0.000184517 0 -0.000184517 0.000192463 0 0 0 -1.58927e-05 
-0.000186618 -0.0001116 0 -0.0001116 0.000168603 0 0 0 1.80153e-05 
-0.000157332 -0.000148324 0 -0.000148324 0.000139317 0 0 0 1.80153e-05 
-0.000139057 -9.02546e-05 0 -9.02546e-05 0.000148221 0 0 0 -9.16372e-06 
-0.000115373 -0.000119954 0 -0.000119954 0.000124536 0 0 0 -9.16372e-06 
-0.000122678 -7.33495e-05 0 -7.33495e-05 0.000110792 0 0 0 1.18861e-05 
-0.00010343 -9.74865e-05 0 -9.74865e-05 9.15434e-05 0 0 0 1.18861e-05 
-9.27136e-05 -5.98898e-05 0 -5.98898e-05 9.79146e-05 0 0 0 -5.201e-06 
-7.69971e-05 -7.95976e-05 0 -7.95976e-05 8.21981e-05 0 0 0 -5.201e-06 
-8.22464e-05 -4.90867e-05 0 -4.90867e-05 7.39956e-05 0 0 0 8.25082e-06 
-6.93649e-05 -6.52395e-05 0 -6.52395e-05 6.11141e-05 0 0 0 8.25082e-06 
-6.28757e-05 -4.03802e-05 0 -4.03802e-05 6.56536e-05 0 0 0 -2.77792e-06 
-5.2279e-05 -5.3668e-05 0 -5.3668e-05 5.50569e-05 0 0 0 -2.77792e-06 
-5.60335e-05 -3.33183e-05 0 -3.33183e-05 5.00181e-05 0 0 0 6.01532e-06 
-4.729e-05 -4.42823e-05 0 -4.42823e-05 4.12747e-05 0 0 0 6.01532e-06 
-0.0225506 -0.045616 0 -0.045616 0.0347742 0 0 0 -0.0122235 
-0.0116815 -0.0508503 0 -0.0508503 0.023905 0 0 0 -0.0122235 
-0.0162507 -0.01905 0 -0.01905 0.00768909 0 0 0 0.00856162 
-0.0117116 -0.0212359 0 -0.0212359 0.00314996 0 0 0 0.00856162 
-0.00543288 -0.0100606 0 -0.0100606 0.00721007 0 0 0 -0.00177719 
-0.0030357 -0.011215 0 -0.011215 0.00481289 0 0 0 -0.00177719 
-0.00446357 -0.00597314 0 -0.00597314 0.00304278 0 0 0 0.0014208 
-0.00304032 -0.00665854 0 -0.00665854 0.00161953 0 0 0 0.0014208 
-0.00215211 -0.00384257 0 -0.00384257 0.00267678 0 0 0 -0.000524669 
-0.00123652 -0.00428349 0 -0.00428349 0.00176119 0 0 0 -0.000524669 
-0.00185767 -0.00260093 0 -0.00260093 0.00141088 0 0 0 0.000446784 
-0.00123793 -0.00289938 0 -0.00289938 0.000791146 0 0 0 0.000446784 
-0.00104716 -0.00183279 0 -0.00183279 0.00125607 0 0 0 -0.000208904 
-0.000610458 -0.00204309 0 -0.00204309 0.000819361 0 0 0 -0.000208904 
-0.000927558 -0.00132842 0 -0.00132842 0.000741847 0 0 0 0.000185711 
-0.000611029 -0.00148085 0 -0.00148085 0.000425317 0 0 0 0.000185711 
-0.000570705 -0.000986194 0 -0.000986194 0.000668629 0 0 0 -9.79237e-05 
-0.00033572 -0.00109936 0 -0.00109936 0.000433643 0 0 0 -9.79237e-05 
-0.000513561 -0.000745226 0 -0.000745226 0.000422952 0 0 0 9.06092e-05 
-0.000335992 -0.000830738 0 -0.000830738 0.000245383 0 0 0 9.06092e-05 
-0.000334112 -0.000572061 0 -0.000572061 0.000384787 0 0 0 -5.06754e-05 
-0.000197804 -0.000637703 0 -0.000637703 0.00024848 0 0 0 -5.06754e-05 
-0.000303852 -0.000444457 0 -0.000444457 0.00025469 0 0 0 4.91618e-05 
-0.000197949 -0.000495457 0 -0.000495457 0.000148787 0 0 0 4.91618e-05 
-0.000205432 -0.000349133 0 -0.000349133 0.000233318 0 0 0 -2.78864e-05 
-0.000122242 -0.000389195 0 -0.000389195 0.000150129 0 0 0 -2.78864e-05 
-0.000188238 -0.00027663 0 -0.00027663 0.000159398 0 0 0 2.88402e-05 
-0.000122324 -0.000308372 0 -0.000308372 9.3484e-05 0 0 0 2.88402e-05 
-0.000130885 -0.000220949 0 -0.000220949 0.000146778 0 0 0 -1.58927e-05 
-7.82387e-05 -0.000246303 0 -0.000246303 9.41314e-05 0 0 0 -1.58927e-05 
-0.000120608 -0.000177611 0 -0.000177611 0.000102593 0 0 0 1.80153e-05 
-7.82877e-05 -0.000197991 0 -0.000197991 6.02724e-05 0 0 0 1.80153e-05 
-8.56727e-05 -0.000143639 0 -0.000143639 9.48364e-05 0 0 0 -9.16372e-06 
-5.14471e-05 -0.000160122 0 -0.000160122 6.06108e-05 0 0 0 -9.16372e-06 
-7.92926e-05 -0.000116735 0 -0.000116735 6.74064e-05 0 0 0 1.18861e-05 
-5.14775e-05 -0.00013013 0 -0.00013013 3.95914e-05 0 0 0 1.18861e-05 
-5.72893e-05 -9.53141e-05 0 -9.53141e-05 6.24903e-05 0 0 0 -5.201e-06 
-3.45784e-05 -0.000106251 0 -0.000106251 3.97794e-05 0 0 0 -5.201e-06 
-5.32121e-05 -7.8121e-05 0 -7.8121e-05 4.49613e-05 0 0 0 8.25082e-06 
-3.45978e-05 -8.70851e-05 0 -8.70851e-05 2.6347e-05 0 0 0 8.25082e-06 
-3.89912e-05 -6.42647e-05 0 -6.42647e-05 4.17691e-05 0 0 0 -2.77792e-06 
-2.36786e-05 -7.16388e-05 0 -7.16388e-05 2.64565e-05 0 0 0 -2.77792e-06 
-3.6326e-05 -5.30258e-05 0 -5.30258e-05 3.03107e-05 0 0 0 6.01532e-06 
-2.36913e-05 -5.91104e-05 0 -5.91104e-05 1.76759e-05 0 0 0 6.01532e-06 
7.98504e-05 -0.0535347 0 -0.0535347 0.0121437 0 0 0 -0.0122235 
0.0121437 -0.0535347 0 -0.0535347 7.98499e-05 0 0 0 -0.0122235 
-0.00679984 -0.022357 0 -0.022357 -0.00176178 0 0 0 0.00856162 
-0.00176178 -0.022357 0 -0.022357 -0.00679984 0 0 0 0.00856162 
-0.000441738 -0.011807 0 -0.011807 0.00221893 0 0 0 -0.00177719 
0.00221893 -0.011807 0 -0.011807 -0.000441738 0 0 0 -0.00177719 
-0.00150024 -0.00701006 0 -0.00701006 7.94451e-05 0 0 0 0.0014208 
7.94451e-05 -0.00701006 0 -0.00701006 -0.00150024 0 0 0 0.0014208 
-0.000245778 -0.00450962 0 -0.00450962 0.000770447 0 0 0 -0.000524669 
0.000770447 -0.00450962 0 -0.00450962 -0.000245778 0 0 0 -0.000524669 
-0.00056732 -0.00305245 0 -0.00305245 0.000120536 0 0 0 0.000446784 
0.000120536 -0.00305245 0 -0.00305245 -0.00056732 0 0 0 0.000446784 
-0.000137902 -0.00215095 0 -0.00215095 0.000346806 0 0 0 -0.000208904 
0.000346806 -0.00215095 0 -0.00215095 -0.000137902 0 0 0 -0.000208904 
-0.000268516 -0.00155903 0 -0.00155903 8.28047e-05 0 0 0 0.000185711 
8.28047e-05 -0.00155903 0 -0.00155903 -0.000268516 0 0 0 0.000185711 
-8.1445e-05 -0.00115739 0 -0.00115739 0.000179369 0 0 0 -9.79237e-05 
0.000179369 -0.00115739 0 -0.00115739 -8.1445e-05 0 0 0 -9.79237e-05 
-0.000143848 -0.000874594 0 -0.000874594 5.32385e-05 0 0 0 9.06092e-05 
5.32385e-05 -0.000874594 0 -0.000874594 -0.000143848 0 0 0 9.06092e-05 
-5.03074e-05 -0.000671369 0 -0.000671369 0.000100983 0 0 0 -5.06754e-05 
0.000100983 -0.000671369 0 -0.000671369 -5.03074e-05 0 0 0 -5.06754e-05 
-8.33526e-05 -0.000521613 0 -0.000521613 3.41907e-05 0 0 0 4.91618e-05 
3.41907e-05 -0.000521613 0 -0.000521613 -8.33526e-05 0 0 0 4.91618e-05 
-3.22236e-05 -0.000409741 0 -0.000409741 6.011e-05 0 0 0 -2.78864e-05 
6.011e-05 -0.000409741 0 -0.000409741 -3.22236e-05 0 0 0 -2.78864e-05 
-5.09995e-05 -0.000324652 0 -0.000324652 2.21594e-05 0 0 0 2.88402e-05 
2.21594e-05 -0.000324652 0 -0.000324652 -5.09995e-05 0 0 0 2.88402e-05 
-2.12703e-05 -0.000259305 0 -0.000259305 3.71631e-05 0 0 0 -1.58927e-05 
3.71631e-05 -0.000259305 0 -0.000259305 -2.12703e-05 0 0 0 -1.58927e-05 
-3.24936e-05 -0.000208443 0 -0.000208443 1.44783e-05 0 0 0 1.80153e-05 
1.44783e-05 -0.000208443 0 -0.000208443 -3.24936e-05 0 0 0 1.80153e-05 
-1.44119e-05 -0.000168575 0 -0.000168575 2.35757e-05 0 0 0 -9.16372e-06 
2.35757e-05 -0.000168575 0 -0.000168575 -1.44119e-05 0 0 0 -9.16372e-06 
-2.13792e-05 -0.000137 0 -0.000137 9.49311e-06 0 0 0 1.18861e-05 
9.49311e-06 -0.000137 0 -0.000137 -2.13792e-05 0 0 0 1.18861e-05 
-1.00031e-05 -0.00011186 0 -0.00011186 1.52041e-05 0 0 0 -5.201e-06 
1.52041e-05 -0.00011186 0 -0.00011186 -1.00031e-05 0 0 0 -5.201e-06 
-1.44555e-05 -9.16825e-05 0 -9.16825e-05 6.20473e-06 0 0 0 8.25082e-06 
6.20473e-06 -9.16825e-05 0 -9.16825e-05 -1.44555e-05 0 0 0 8.25082e-06 
-7.10892e-06 -7.54207e-05 0 -7.54207e-05 9.88684e-06 0 0 0 -2.77792e-06 
9.88684e-06 -7.54207e-05 0 -7.54207e-05 -7.10892e-06 0 0 0 -2.77792e-06 
-1.00194e-05 -6.22309e-05 0 -6.22309e-05 4.00407e-06 0 0 0 6.01532e-06 
4.00407e-06 -6.22309e-05 0 -6.22309e-05 -1.00194e-05 0 0 0 6.01532e-06 
0.023905 -0.0508503 0 -0.0508503 -0.0116815 0 0 0 -0.0122235 
0.0347742 -0.045616 0 -0.045616 -0.0225506 0 0 0 -0.0122235 
0.00314996 -0.0212359 0 -0.0212359 -0.0117116 0 0 0 0.00856162 
0.00768909 -0.01905 0 -0.01905 -0.0162507 0 0 0 0.00856162 
0.00481289 -0.011215 0 -0.011215 -0.0030357 0 0 0 -0.00177719 
0.00721007 -0.0100606 0 -0.0100606 -0.00543288 0 0 0 -0.00177719 
0.00161953 -0.00665854 0 -0.00665854 -0.00304032 0 0 0 0.0014208 
0.00304278 -0.00597314 0 -0.00597314 -0.00446357 0 0 0 0.0014208 
0.00176119 -0.00428349 0 -0.00428349 -0.00123652 0 0 0 -0.000524669 
0.00267678 -0.00384257 0 -0.00384257 -0.00215211 0 0 0 -0.000524669 
0.000791146 -0.00289938 0 -0.00289938 -0.00123793 0 0 0 0.000446784 
0.00141088 -0.00260093 0 -0.00260093 -0.00185767 0 0 0 0.000446784 
0.000819361 -0.00204309 0 -0.00204309 -0.000610458 0 0 0 -0.000208904 
0.00125607 -0.00183279 0 -0.00183279 -0.00104716 0 0 0 -0.000208904 
0.000425317 -0.00148085 0 -0.00148085 -0.000611029 0 0 0 0.000185711 
0.000741847 -0.00132842 0 -0.00132842 -0.000927558 0 0 0 0.000185711 
0.000433643 -0.00109936 0 -0.00109936 -0.00033572 0 0 0 -9.79237e-05 
0.000668629 -0.000986194 0 -0.000986194 -0.000570705 0 0 0 -9.79237e-05 
0.000245383 -0.000830738 0 -0.000830738 -0.000335992 0 0 0 9.06092e-05 
0.000422952 -0.000745226 0 -0.000745226 -0.000513561 0 0 0 9.06092e-05 
0.00024848 -0.000637703 0 -0.000637703 -0.000197804 0 0 0 -5.06754e-05 
0.000384787 -0.000572061 0 -0.000572061 -0.000334112 0 0 0 -5.06754e-05 
0.000148787 -0.000495457 0 -0.000495457 -0.000197949 0 0 0 4.91618e-05 
0.00025469 -0.000444457 0 -0.000444457 -0.000303852 0 0 0 4.91618e-05 
0.000150129 -0.000389195 0 -0.000389195 -0.000122242 0 0 0 -2.78864e-05 
0.000233318 -0.000349133 0 -0.000349133 -0.000205432 0 0 0 -2.78864e-05 
9.3484e-05 -0.000308372 0 -0.000308372 -0.000122324 0 0 0 2.88402e-05 
0.000159398 -0.00027663 0 -0.00027663 -0.000188238 0 0 0 2.88402e-05 
9.41314e-05 -0.000246303 0 -0.000246303 -7.82387e-05 0 0 0 -1.58927e-05 
0.000146778 -0.000220949 0 -0.000220949 -0.000130885 0 0 0 -1.58927e-05 
6.02724e-05 -0.000197991 0 -0.000197991 -7.82877e-05 0 0 0 1.80153e-05 
0.000102593 -0.000177611 0 -0.000177611 -0.000120608 0 0 0 1.80153e-05 
6.06108e-05 -0.000160122 0 -0.000160122 -5.14471e-05 0 0 0 -9.16372e-06 
9.48364e-05 -0.000143639 0 -0.000143639 -8.56727e-05 0 0 0 -9.16372e-06 
3.95914e-05 -0.00013013 0 -0.00013013 -5.14775e-05 0 0 0 1.18861e-05 
6.74064e-05 -0.000116735 0 -0.000116735 -7.92926e-05 0 0 0 1.18861e-05 
3.97794e-05 -0.000106251 0 -0.000106251 -3.45784e-05 0 0 0 -5.201e-06 
6.24903e-05 -9.53141e-05 0 -9.53141e-05 -5.72893e-05 0 0 0 -5.201e-06 
2.6347e-05 -8.70851e-05 0 -8.70851e-05 -3.45978e-05 0 0 0 8.25082e-06 
4.49613e-05 -7.8121e-05 0 -7.8121e-05 -5.32121e-05 0 0 0 8.25082e-06 
2.64565e-05 -7.16388e-05 0 -7.16388e-05 -2.36786e-05 0 0 0 -2.77792e-06 
4.17691e-05 -6.42647e-05 0 -6.42647e-05 -3.89912e-05 0 0 0 -2.77792e-06 
1.76759e-05 -5.91104e-05 0 -5.91104e-05 -2.36913e-05 0 0 0 6.01532e-06 
3.03107e-05 -5.30258e-05 0 -5.30258e-05 -3.6326e-05 0 0 0 6.01532e-06 
0.0442061 -0.0380943 0 -0.0380943 -0.0319825 0 0 0 -0.0122235 
0.0517277 -0.0286624 0 -0.0286624 -0.0395042 0 0 0 -0.0122235 
0.011628 -0.0159088 0 -0.0159088 -0.0201896 0 0 0 0.00856162 
0.0147692 -0.0119699 0 -0.0119699 -0.0233308 0 0 0 0.00856162 
0.00929026 -0.00840167 0 -0.00840167 -0.00751307 0 0 0 -0.00177719 
0.0109492 -0.00632147 0 -0.00632147 -0.00917197 0 0 0 -0.00177719 
0.00427783 -0.00498822 0 -0.00498822 -0.00569862 0 0 0 0.0014208 
0.00526274 -0.00375317 0 -0.00375317 -0.00668354 0 0 0 0.0014208 
0.0034713 -0.00320896 0 -0.00320896 -0.00294663 0 0 0 -0.000524669 
0.0041049 -0.00241445 0 -0.00241445 -0.00358024 0 0 0 -0.000524669 
0.00194867 -0.00217206 0 -0.00217206 -0.00239545 0 0 0 0.000446784 
0.00237754 -0.00163427 0 -0.00163427 -0.00282433 0 0 0 0.000446784 
0.00163503 -0.00153058 0 -0.00153058 -0.00142613 0 0 0 -0.000208904 
0.00193724 -0.00115162 0 -0.00115162 -0.00172834 0 0 0 -0.000208904 
0.00101652 -0.00110938 0 -0.00110938 -0.00120223 0 0 0 0.000185711 
0.00123557 -0.000834702 0 -0.000834702 -0.00142128 0 0 0 0.000185711 
0.000872541 -0.000823579 0 -0.000823579 -0.000774617 0 0 0 -9.79237e-05 
0.00103516 -0.000619667 0 -0.000619667 -0.000937232 0 0 0 -9.79237e-05 
0.00057704 -0.000622344 0 -0.000622344 -0.000667649 0 0 0 9.06092e-05 
0.000699921 -0.000468256 0 -0.000468256 -0.00079053 0 0 0 9.06092e-05 
0.000503071 -0.000477733 0 -0.000477733 -0.000452395 0 0 0 -5.06754e-05 
0.000597399 -0.00035945 0 -0.00035945 -0.000546723 0 0 0 -5.06754e-05 
0.000346589 -0.00037117 0 -0.00037117 -0.000395751 0 0 0 4.91618e-05 
0.000419876 -0.000279271 0 -0.000279271 -0.000469038 0 0 0 4.91618e-05 
0.000305507 -0.000291564 0 -0.000291564 -0.000277621 0 0 0 -2.78864e-05 
0.000363076 -0.000219375 0 -0.000219375 -0.00033519 0 0 0 -2.78864e-05 
0.000216596 -0.000231016 0 -0.000231016 -0.000245436 0 0 0 2.88402e-05 
0.00026221 -0.000173818 0 -0.000173818 -0.00029105 0 0 0 2.88402e-05 
0.000192463 -0.000184517 0 -0.000184517 -0.00017657 0 0 0 -1.58927e-05 
0.000228896 -0.000138832 0 -0.000138832 -0.000213003 0 0 0 -1.58927e-05 
0.000139317 -0.000148324 0 -0.000148324 -0.000157332 0 0 0 1.80153e-05 
0.000168603 -0.0001116 0 -0.0001116 -0.000186618 0 0 0 1.80153e-05 
0.000124536 -0.000119954 0 -0.000119954 -0.000115373 0 0 0 -9.16372e-06 
0.000148221 -9.02546e-05 0 -9.02546e-05 -0.000139057 0 0 0 -9.16372e-06 
9.15434e-05 -9.74865e-05 0 -9.74865e-05 -0.00010343 0 0 0 1.18861e-05 
0.000110792 -7.33495e-05 0 -7.33495e-05 -0.000122678 0 0 0 1.18861e-05 
8.21981e-05 -7.95976e-05 0 -7.95976e-05 -7.69971e-05 0 0 0 -5.201e-06 
9.79146e-05 -5.98898e-05 0 -5.98898e-05 -9.27136e-05 0 0 0 -5.201e-06 
6.11141e-05 -6.52395e-05 0 -6.52395e-05 -6.93649e-05 0 0 0 8.25082e-06 
7.39956e-05 -4.90867e-05 0 -4.90867e-05 -8.22464e-05 0 0 0 8.25082e-06 
5.50569e-05 -5.3668e-05 0 -5.3668e-05 -5.2279e-05 0 0 0 -2.77792e-06 
6.56536e-05 -4.03802e-05 0 -4.03802e-05 -6.28757e-05 0 0 0 -2.77792e-06 
4.12747e-05 -4.42823e-05 0 -4.42823e-05 -4.729e-05 0 0 0 6.01532e-06 
5.00181e-05 -3.33183e-05 0 -3.33183e-05 -5.60335e-05 0 0 0 6.01532e-06 
0.056962 -0.0177933 0 -0.0177933 -0.0447385 0 0 0 -0.0122235 
0.0596465 -0.00603191 0 -0.00603191 -0.047423 0 0 0 -0.0122235 
0.0169551 -0.00743077 0 -0.00743077 -0.0255167 0 0 0 0.00856162 
0.0180762 -0.00251903 0 -0.00251903 -0.0266378 0 0 0 0.00856162 
0.0121036 -0.00392429 0 -0.00392429 -0.0103264 0 0 0 -0.00177719 
0.0126956 -0.00133033 0 -0.00133033 -0.0109184 0 0 0 -0.00177719 
0.00594815 -0.00232993 0 -0.00232993 -0.00736894 0 0 0 0.0014208 
0.00629966 -0.000789844 0 -0.000789844 -0.00772046 0 0 0 0.0014208 
0.00454583 -0.00149886 0 -0.00149886 -0.00402116 0 0 0 -0.000524669 
0.00477196 -0.000508113 0 -0.000508113 -0.00424729 0 0 0 -0.000524669 
0.00267599 -0.00101454 0 -0.00101454 -0.00312277 0 0 0 0.000446784 
0.00282905 -0.000343928 0 -0.000343928 -0.00327584 0 0 0 0.000446784 
0.00214755 -0.00071491 0 -0.00071491 -0.00193864 0 0 0 -0.000208904 
0.0022554 -0.000242354 0 -0.000242354 -0.0020465 0 0 0 -0.000208904 
0.001388 -0.000518173 0 -0.000518173 -0.00157371 0 0 0 0.000185711 
0.00146617 -0.00017566 0 -0.00017566 -0.00165189 0 0 0 0.000185711 
0.00114832 -0.000384682 0 -0.000384682 -0.00105039 0 0 0 -9.79237e-05 
0.00120636 -0.000130407 0 -0.000130407 -0.00110843 0 0 0 -9.79237e-05 
0.000785434 -0.000290688 0 -0.000290688 -0.000876043 0 0 0 9.06092e-05 
0.000829289 -9.85431e-05 0 -9.85431e-05 -0.000919898 0 0 0 9.06092e-05 
0.000663041 -0.000223142 0 -0.000223142 -0.000612366 0 0 0 -5.06754e-05 
0.000696706 -7.56451e-05 0 -7.56451e-05 -0.000646031 0 0 0 -5.06754e-05 
0.000470876 -0.000173368 0 -0.000173368 -0.000520038 0 0 0 4.91618e-05 
0.000497032 -5.87717e-05 0 -5.87717e-05 -0.000546194 0 0 0 4.91618e-05 
0.000403138 -0.000136185 0 -0.000136185 -0.000375252 0 0 0 -2.78864e-05 
0.000423685 -4.61668e-05 0 -4.61668e-05 -0.000395798 0 0 0 -2.78864e-05 
0.000293952 -0.000107904 0 -0.000107904 -0.000322792 0 0 0 2.88402e-05 
0.000310231 -3.65794e-05 0 -3.65794e-05 -0.000339072 0 0 0 2.88402e-05 
0.000254249 -8.61851e-05 0 -8.61851e-05 -0.000238356 0 0 0 -1.58927e-05 
0.000267252 -2.92167e-05 0 -2.92167e-05 -0.000251359 0 0 0 -1.58927e-05 
0.000188983 -6.92801e-05 0 -6.92801e-05 -0.000206999 0 0 0 1.80153e-05 
0.000199436 -2.34859e-05 0 -2.34859e-05 -0.000217451 0 0 0 1.80153e-05 
0.000164703 -5.6029e-05 0 -5.6029e-05 -0.00015554 0 0 0 -9.16372e-06 
0.000173156 -1.89938e-05 0 -1.89938e-05 -0.000163993 0 0 0 -9.16372e-06 
0.000124187 -4.55345e-05 0 -4.55345e-05 -0.000136073 0 0 0 1.18861e-05 
0.000131057 -1.54362e-05 0 -1.54362e-05 -0.000142943 0 0 0 1.18861e-05 
0.000108852 -3.71789e-05 0 -3.71789e-05 -0.000103651 0 0 0 -5.201e-06 
0.000114461 -1.26036e-05 0 -1.26036e-05 -0.00010926 0 0 0 -5.201e-06 
8.29597e-05 -3.04724e-05 0 -3.04724e-05 -9.12106e-05 0 0 0 8.25082e-06 
8.75571e-05 -1.03301e-05 0 -1.03301e-05 -9.58079e-05 0 0 0 8.25082e-06 
7.30278e-05 -2.50675e-05 0 -2.50675e-05 -7.02499e-05 0 0 0 -2.77792e-06 
7.68097e-05 -8.49788e-06 0 -8.49788e-06 -7.40318e-05 0 0 0 -2.77792e-06 
5.61027e-05 -2.06836e-05 0 -2.06836e-05 -6.2118e-05 0 0 0 6.01532e-06 
5.92232e-05 -7.01174e-06 0 -7.01174e-06 -6.52385e-05 0 0 0 6.01532e-06 
0.0596465 0.00603191 0 0.00603191 -0.047423 0 0 0 -0.0122235 
0.056962 0.0177933 0 0.0177933 -0.0447385 0 0 0 -0.0122235 
0.0180762 0.00251903 0 0.00251903 -0.0266378 0 0 0 0.00856162 
0.0169551 0.00743077 0 0.00743077 -0.0255167 0 0 0 0.00856162 
0.0126956 0.00133033 0 0.00133033 -0.0109184 0 0 0 -0.00177719 
0.0121036 0.00392429 0 0.00392429 -0.0103264 0 0 0 -0.00177719 
0.00629966 0.000789844 0 0.000789844 -0.00772046 0 0 0 0.0014208 
0.00594815 0.00232993 0 0.00232993 -0.00736894 0 0 0 0.0014208 
0.00477196 0.000508113 0 0.000508113 -0.00424729 0 0 0 -0.000524669 
0.00454583 0.00149886 0 0.00149886 -0.00402116 0 0 0 -0.000524669 
0.00282905 0.000343928 0 0.000343928 -0.00327584 0 0 0 0.000446784 
0.00267599 0.00101454 0 0.00101454 -0.00312277 0 0 0 0.000446784 
0.0022554 0.000242354 0 0.000242354 -0.0020465 0 0 0 -0.000208904 
0.00214755 0.00071491 0 0.00071491 -0.00193864 0 0 0 -0.000208904 
0.00146617 0.00017566 0 0.00017566 -0.00165189 0 0 0 0.000185711 
0.001388 0.000518173 0 0.000518173 -0.00157371 0 0 0 0.000185711 
0.00120636 0.000130407 0 0.000130407 -0.00110843 0 0 0 -9.79237e-05 
0.00114832 0.000384682 0 0.000384682 -0.00105039 0 0 0 -9.79237e-05 
0.000829289 9.85431e-05 0 9.85431e-05 -0.000919898 0 0 0 9.06092e-05 
0.000785434 0.000290688 0 0.000290688 -0.000876043 0 0 0 9.06092e-05 
0.000696706 7.56451e-05 0 7.56451e-05 -0.000646031 0 0 0 -5.06754e-05 
0.000663041 0.000223142 0 0.000223142 -0.000612366 0 0 0 -5.06754e-05 
0.000497032 5.87717e-05 0 5.87717e-05 -0.000546194 0 0 0 4.91618e-05 
0.000470876 0.000173368 0 0.000173368 -0.000520038 0 0 0 4.91618e-05 
0.000423685 4.61668e-05 0 4.61668e-05 -0.000395798 0 0 0 -2.78864e-05 
0.000403138 0.000136185 0 0.000136185 -0.000375252 0 0 0 -2.78864e-05 
0.000310231 3.65794e-05 0 3.65794e-05 -0.000339072 0 0 0 2.88402e-05 
0.000293952 0.000107904 0 0.000107904 -0.000322792 0 0 0 2.88402e-05 
0.000267252 2.92167e-05 0 2.92167e-05 -0.000251359 0 0 0 -1.58927e-05 
0.000254249 8.61851e-05 0 8.61851e-05 -0.000238356 0 0 0 -1.58927e-05 
0.000199436 2.34859e-05 0 2.34859e-05 -0.000217451 0 0 0 1.80153e-05 
0.000188983 6.92801e-05 0 6.92801e-05 -0.000206999 0 0 0 1.80153e-05 
0.000173156 1.89938e-05 0 1.89938e-05 -0.000163993 0 0 0 -9.16372e-06 
0.000164703 5.6029e-05 0 5.6029e-05 -0.00015554 0 0 0 -9.16372e-06 
0.000131057 1.54362e-05 0 1.54362e-05 -0.000142943 0 0 0 1.18861e-05 
0.000124187 4.55345e-05 0 4.55345e-05 -0.000136073 0 0 0 1.18861e-05 
0.000114461 1.26036e-05 0 1.26036e-05 -0.00010926 0 0 0 -5.201e-06 
0.000108852 3.71789e-05 0 3.71789e-05 -0.000103651 0 0 0 -5.201e-06 
8.75571e-05 1.03301e-05 0 1.03301e-05 -9.58079e-05 0 0 0 8.25082e-06 
8.29597e-05 3.04724e-05 0 3.04724e-05 -9.12106e-05 0 0 0 8.25082e-06 
7.68097e-05 8.49788e-06 0 8.49788e-06 -7.40318e-05 0 0 0 -2.77792e-06 
7.30278e-05 2.50675e-05 0 2.50675e-05 -7.02499e-05 0 0 0 -2.77792e-06 
5.92232e-05 7.01174e-06 0 7.01174e-06 -6.52385e-05 0 0 0 6.01532e-06 
5.61027e-05 2.06836e-05 0 2.06836e-05 -6.2118e-05 0 0 0 6.01532e-06 
0.0517277 0.0286624 0 0.0286624 -0.0395042 0 0 0 -0.0122235 
0.0442061 0.0380943 0 0.0380943 -0.0319825 0 0 0 -0.0122235 
0.0147692 0.0119699 0 0.0119699 -0.0233308 0 0 0 0.00856162 
0.011628 0.0159088 0 0.0159088 -0.0201896 0 0 0 0.00856162 
0.0109492 0.00632147 0 0.00632147 -0.00917197 0 0 0 -0.00177719 
0.00929026 0.00840167 0 0.00840167 -0.00751307 0 0 0 -0.00177719 
0.00526274 0.00375317 0 0.00375317 -0.00668354 0 0 0 0.0014208 
0.00427783 0.00498822 0 0.00498822 -0.00569862 0 0 0 0.0014208 
0.0041049 0.00241445 0 0.00241445 -0.00358024 0 0 0 -0.000524669 
0.0034713 0.00320896 0 0.00320896 -0.00294663 0 0 0 -0.000524669 
0.00237754 0.00163427 0 0.00163427 -0.00282433 0 0 0 0.000446784 
0.00194867 0.00217206 0 0.00217206 -0.00239545 0 0 0 0.000446784 
0.00193724 0.00115162 0 0.00115162 -0.00172834 0 0 0 -0.000208904 
0.00163503 0.00153058 0 0.00153058 -0.00142613 0 0 0 -0.000208904 
0.00123557 0.000834702 0 0.000834702 -0.00142128 0 0 0 0.000185711 
0.00101652 0.00110938 0 0.00110938 -0.00120223 0 0 0 0.000185711 
0.00103516 0.000619667 0 0.000619667 -0.000937232 0 0 0 -9.79237e-05 
0.000872541 0.000823579 0 0.000823579 -0.000774617 0 0 0 -9.79237e-05 
0.000699921 0.000468256 0 0.000468256 -0.00079053 0 0 0 9.06092e-05 
0.00057704 0.000622344 0 0.000622344 -0.000667649 0 0 0 9.06092e-05 
0.000597399 0.00035945 0 0.00035945 -0.000546723 0 0 0 -5.06754e-05 
0.000503071 0.000477733 0 0.000477733 -0.000452395 0 0 0 -5.06754e-05 
0.000419876 0.000279271 0 0.000279271 -0.000469038 0 0 0 4.91618e-05 
0.000346589 0.00037117 0 0.00037117 -0.000395751 0 0 0 4.91618e-05 
0.000363076 0.000219375 0 0.000219375 -0.00033519 0 0 0 -2.78864e-05 
0.000305507 0.000291564 0 0.000291564 -0.000277621 0 0 0 -2.78864e-05 
0.00026221 0.000173818 0 0.000173818 -0.00029105 0 0 0 2.88402e-05 
0.000216596 0.000231016 0 0.000231016 -0.000245436 0 0 0 2.88402e-05 
0.000228896 0.000138832 0 0.000138832 -0.000213003 0 0 0 -1.58927e-05 
0.000192463 0.000184517 0 0.000184517 -0.00017657 0 0 0 -1.58927e-05 
0.000168603 0.0001116 0 0.0001116 -0.000186618 0 0 0 1.80153e-05 
0.000139317 0.000148324 0 0.000148324 -0.000157332 0 0 0 1.80153e-05 
0.000148221 9.02546e-05 0 9.02546e-05 -0.000139057 0 0 0 -9.16372e-06 
0.000124536 0.000119954 0 0.000119954 -0.000115373 0 0 0 -9.16372e-06 
0.000110792 7.33495e-05 0 7.33495e-05 -0.000122678 0 0 0 1.18861e-05 
9.15434e-05 9.74865e-05 0 9.74865e-05 -0.00010343 0 0 0 1.18861e-05 
9.79146e-05 5.98898e-05 0 5.98898e-05 -9.27136e-05 0 0 0 -5.201e-06 
8.21981e-05 7.95976e-05 0 7.95976e-05 -7.69971e-05 0 0 0 -5.201e-06 
7.39956e-05 4.90867e-05 0 4.90867e-05 -8.22464e-05 0 0 0 8.25082e-06 
6.11141e-05 6.52395e-05 0 6.52395e-05 -6.93649e-05 0 0 0 8.25082e-06 
6.56536e-05 4.03802e-05 0 4.03802e-05 -6.28757e-05 0 0 0 -2.77792e-06 
5.50569e-05 5.3668e-05 0 5.3668e-05 -5.2279e-05 0 0 0 -2.77792e-06 
5.00181e-05 3.33183e-05 0 3.33183e-05 -5.60335e-05 0 0 0 6.01532e-06 
4.12747e-05 4.42823e-05 0 4.42823e-05 -4.729e-05 0 0 0 6.01532e-06 
0.0347742 0.045616 0 0.045616 -0.0225506 0 0 0 -0.0122235 
0.023905 0.0508503 0 0.0508503 -0.0116815 0 0 0 -0.0122235 
0.00768909 0.01905 0 0.01905 -0.0162507 0 0 0 0.00856162 
0.00314996 0.0212359 0 0.0212359 -0.0117116 0 0 0 0.00856162 
0.00721007 0.0100606 0 0.0100606 -0.00543288 0 0 0 -0.00177719 
0.00481289 0.011215 0 0.011215 -0.0030357 0 0 0 -0.00177719 
0.00304278 0.00597314 0 0.00597314 -0.00446357 0 0 0 0.0014208 
0.00161953 0.00665854 0 0.00665854 -0.00304032 0 0 0 0.0014208 
0.00267678 0.00384257 0 0.00384257 -0.00215211 0 0 0 -0.000524669 
0.00176119 0.00428349 0 0.00428349 -0.00123652 0 0 0 -0.000524669 
0.00141088 0.00260093 0 0.00260093 -0.00185767 0 0 0 0.000446784 
0.000791146 0.00289938 0 0.00289938 -0.00123793 0 0 0 0.000446784 
0.00125607 0.00183279 0 0.00183279 -0.00104716 0 0 0 -0.000208904 
0.000819361 0.00204309 0 0.00204309 -0.000610458 0 0 0 -0.000208904 
0.000741847 0.00132842 0 0.00132842 -0.000927558 0 0 0 0.000185711 
0.000425317 0.00148085 0 0.00148085 -0.000611029 0 0 0 0.000185711 
0.000668629 0.000986194 0 0.000986194 -0.000570705 0 0 0 -9.79237e-05 
0.000433643 0.00109936 0 0.00109936 -0.00033572 0 0 0 -9.79237e-05 
0.000422952 0.000745226 0 0.000745226 -0.000513561 0 0 0 9.06092e-05 
0.000245383 0.000830738 0 0.000830738 -0.000335992 0 0 0 9.06092e-05 
0.000384787 0.000572061 0 0.000572061 -0.000334112 0 0 0 -5.06754e-05 
0.00024848 0.000637703 0 0.000637703 -0.000197804 0 0 0 -5.06754e-05 
0.00025469 0.000444457 0 0.000444457 -0.000303852 0 0 0 4.91618e-05 
0.000148787 0.000495457 0 0.000495457 -0.000197949 0 0 0 4.91618e-05 
0.000233318 0.000349133 0 0.000349133 -0.000205432 0 0 0 -2.78864e-05 
0.000150129 0.000389195 0 0.000389195 -0.000122242 0 0 0 -2.78864e-05 
0.000159398 0.00027663 0 0.00027663 -0.000188238 0 0 0 2.88402e-05 
9.3484e-05 0.000308372 0 0.000308372 -0.000122324 0 0 0 2.88402e-05 
0.000146778 0.000220949 0 0.000220949 -0.000130885 0 0 0 -1.58927e-05 
9.41314e-05 0.000246303 0 0.000246303 -7.82387e-05 0 0 0 -1.58927e-05 
0.000102593 0.000177611 0 0.000177611 -0.000120608 0 0 0 1.80153e-05 
6.02724e-05 0.000197991 0 0.000197991 -7.82877e-05 0 0 0 1.80153e-05 
9.48364e-05 0.000143639 0 0.000143639 -8.56727e-05 0 0 0 -9.16372e-06 
6.06108e-05 0.000160122 0 0.000160122 -5.14471e-05 0 0 0 -9.16372e-06 
6.74064e-05 0.000116735 0 0.000116735 -7.92926e-05 0 0 0 1.18861e-05 
3.95914e-05 0.00013013 0 0.00013013 -5.14775e-05 0 0 0 1.18861e-05 
6.24903e-05 9.53141e-05 0 9.53141e-05 -5.72893e-05 0 0 0 -5.201e-06 
3.97794e-05 0.000106251 0 0.000106251 -3.45784e-05 0 0 0 -5.201e-06 
4.49613e-05 7.8121e-05 0 7.8121e-05 -5.32121e-05 0 0 0 8.25082e-06 
2.6347e-05 8.70851e-05 0 8.70851e-05 -3.45978e-05 0 0 0 8.25082e-06 
4.17691e-05 6.42647e-05 0 6.42647e-05 -3.89912e-05 0 0 0 -2.77792e-06 
2.64565e-05 7.16388e-05 0 7.16388e-05 -2.36786e-05 0 0 0 -2.77792e-06 
3.03107e-05 5.30258e-05 0 5.30258e-05 -3.6326e-05 0 0 0 6.01532e-06 
1.76759e-05 5.91104e-05 0 5.91104e-05 -2.36913e-05 0 0 0 6.01532e-06 
0.0121437 0.0535347 0 0.0535347 7.98504e-05 0 0 0 -0.0122235 
7.98499e-05 0.0535347 0 0.0535347 0.0121437 0 0 0 -0.0122235 
-0.00176178 0.022357 0 0.022357 -0.00679984 0 0 0 0.00856162 
-0.00679984 0.022357 0 0.022357 -0.00176178 0 0 0 0.00856162 
0.00221893 0.011807 0 0.011807 -0.000441738 0 0 0 -0.00177719 
-0.000441738 0.011807 0 0.011807 0.00221893 0 0 0 -0.00177719 
7.94451e-05 0.00701006 0 0.00701006 -0.00150024 0 0 0 0.0014208 
-0.00150024 0.00701006 0 0.00701006 7.94451e-05 0 0 0 0.0014208 
0.000770447 0.00450962 0 0.00450962 -0.000245778 0 0 0 -0.000524669 
-0.000245778 0.00450962 0 0.00450962 0.000770447 0 0 0 -0.000524669 
0.000120536 0.00305245 0 0.00305245 -0.00056732 0 0 0 0.000446784 
-0.00056732 0.00305245 0 0.00305245 0.000120536 0 0 0 0.000446784 
0.000346806 0.00215095 0 0.00215095 -0.000137902 0 0 0 -0.000208904 
-0.000137902 0.00215095 0 0.00215095 0.000346806 0 0 0 -0.000208904 
8.28047e-05 0.00155903 0 0.00155903 -0.000268516 0 0 0 0.000185711 
-0.000268516 0.00155903 0 0.00155903 8.28047e-05 0 0 0 0.000185711 
0.000179369 0.00115739 0 0.00115739 -8.1445e-05 0 0 0 -9.79237e-05 
-8.1445e-05 0.00115739 0 0.00115739 0.000179369 0 0 0 -9.79237e-05 
5.32385e-05 0.000874594 0 0.000874594 -0.000143848 0 0 0 9.06092e-05 
-0.000143848 0.000874594 0 0.000874594 5.32385e-05 0 0 0 9.06092e-05 
0.000100983 0.000671369 0 0.000671369 -5.03074e-05 0 0 0 -5.06754e-05 
-5.03074e-05 0.000671369 0 0.000671369 0.000100983 0 0 0 -5.06754e-05 
3.41907e-05 0.000521613 0 0.000521613 -8.33526e-05 0 0 0 4.91618e-05 
-8.33526e-05 0.000521613 0 0.000521613 3.41907e-05 0 0 0 4.91618e-05 
6.011e-05 0.000409741 0 0.000409741 -3.22236e-05 0 0 0 -2.78864e-05 
-3.22236e-05 0.000409741 0 0.000409741 6.011e-05 0 0 0 -2.78864e-05 
2.21594e-05 0.000324652 0 0.000324652 -5.09995e-05 0 0 0 2.88402e-05 
-5.09995e-05 0.000324652 0 0.000324652 2.21594e-05 0 0 0 2.88402e-05 
3.71631e-05 0.000259305 0 0.000259305 -2.12703e-05 0 0 0 -1.58927e-05 
-2.12703e-05 0.000259305 0 0.000259305 3.71631e-05 0 0 0 -1.58927e-05 
1.44783e-05 0.000208443 0 0.000208443 -3.24936e-05 0 0 0 1.80153e-05 
-3.24936e-05 0.000208443 0 0.000208443 1.44783e-05 0 0 0 1.80153e-05 
2.35757e-05 0.000168575 0 0.000168575 -1.44119e-05 0 0 0 -9.16372e-06 
-1.44119e-05 0.000168575 0 0.000168575 2.35757e-05 0 0 0 -9.16372e-06 
9.49311e-06 0.000137 0 0.000137 -2.13792e-05 0 0 0 1.18861e-05 
-2.13792e-05 0.000137 0 0.000137 9.49311e-06 0 0 0 1.18861e-05 
1.52041e-05 0.00011186 0 0.00011186 -1.00031e-05 0 0 0 -5.201e-06 
-1.00031e-05 0.00011186 0 0.00011186 1.52041e-05 0 0 0 -5.201e-06 
6.20473e-06 9.16825e-05 0 9.16825e-05 -1.44555e-05 0 0 0 8.25082e-06 
-1.44555e-05 9.16825e-05 0 9.16825e-05 6.20473e-06 0 0 0 8.25082e-06 
9.88684e-06 7.54207e-05 0 7.54207e-05 -7.10892e-06 0 0 0 -2.77792e-06 
-7.10892e-06 7.54207e-05 0 7.54207e-05 9.88684e-06 0 0 0 -2.77792e-06 
4.00407e-06 6.22309e-05 0 6.22309e-05 -1.00194e-05 0 0 0 6.01532e-06 
-1.00194e-05 6.22309e-05 0 6.22309e-05 4.00407e-06 0 0 0 6.01532e-06 
-0.0116815 0.0508503 0 0.0508503 0.023905 0 0 0 -0.0122235 
-0.0225506 0.045616 0 0.045616 0.0347742 0 0 0 -0.0122235 
-0.0117116 0.0212359 0 0.0212359 0.00314996 0 0 0 0.00856162 
-0.0162507 0.01905 0 0.01905 0.00768909 0 0 0 0.00856162 
-0.0030357 0.011215 0 0.011215 0.00481289 0 0 0 -0.00177719 
-0.00543288 0.0100606 0 0.0100606 0.00721007 0 0 0 -0.00177719 
-0.00304032 0.00665854 0 0.00665854 0.00161953 0 0 0 0.0014208 
-0.00446357 0.00597314 0 0.00597314 0.00304278 0 0 0 0.0014208 
-0.00123652 0.00428349 0 0.00428349 0.00176119 0 0 0 -0.000524669 
-0.00215211 0.00384257 0 0.00384257 0.00267678 0 0 0 -0.000524669 
-0.00123793 0.00289938 0 0.00289938 0.000791146 0 0 0 0.000446784 
-0.00185767 0.00260093 0 0.00260093 0.00141088 0 0 0 0.000446784 
-0.000610458 0.00204309 0 0.00204309 0.000819361 0 0 0 -0.000208904 
-0.00104716 0.00183279 0 0.00183279 0.00125607 0 0 0 -0.000208904 
-0.000611029 0.00148085 0 0.00148085 0.000425317 0 0 0 0.000185711 
-0.000927558 0.00132842 0 0.00132842 0.000741847 0 0 0 0.000185711 
-0.00033572 0.00109936 0 0.00109936 0.000433643 0 0 0 -9.79237e-05 
-0.000570705 0.000986194 0 0.000986194 0.000668629 0 0 0 -9.79237e-05 
-0.000335992 0.000830738 0 0.000830738 0.000245383 0 0 0 9.06092e-05 
-0.000513561 0.000745226 0 0.000745226 0.000422952 0 0 0 9.06092e-05 
-0.000197804 0.000637703 0 0.000637703 0.00024848 0 0 0 -5.06754e-05 
-0.000334112 0.000572061 0 0.000572061 0.000384787 0 0 0 -5.06754e-05 
-0.000197949 0.000495457 0 0.000495457 0.000148787 0 0 0 4.91618e-05 
-0.000303852 0.000444457 0 0.000444457 0.00025469 0 0 0 4.91618e-05 
-0.000122242 0.000389195 0 0.000389195 0.000150129 0 0 0 -2.78864e-05 
-0.000205432 0.000349133 0 0.000349133 0.000233318 0 0 0 -2.78864e-05 
-0.000122324 0.000308372 0 0.000308372 9.3484e-05 0 0 0 2.88402e-05 
-0.000188238 0.00027663 0 0.00027663 0.000159398 0 0 0 2.88402e-05 
-7.82387e-05 0.000246303 0 0.000246303 9.41314e-05 0 0 0 -1.58927e-05 
-0.000130885 0.000220949 0 0.000220949 0.000146778 0 0 0 -1.58927e-05 
-7.82877e-05 0.000197991 0 0.000197991 6.02724e-05 0 0 0 1.80153e-05 
-0.000120608 0.000177611 0 0.000177611 0.000102593 0 0 0 1.80153e-05 
-5.14471e-05 0.000160122 0 0.000160122 6.06108e-05 0 0 0 -9.16372e-06 
-8.56727e-05 0.000143639 0 0.000143639 9.48364e-05 0 0 0 -9.16372e-06 
-5.14775e-05 0.00013013 0 0.00013013 3.95914e-05 0 0 0 1.18861e-05 
-7.92926e-05 0.000116735 0 0.000116735 6.74064e-05 0 0 0 1.18861e-05 
-3.45784e-05 0.000106251 0 0.000106251 3.97794e-05 0 0 0 -5.201e-06 
-5.72893e-05 9.53141e-05 0 9.53141e-05 6.24903e-05 0 0 0 -5.201e-06 
-3.45978e-05 8.70851e-05 0 8.70851e-05 2.6347e-05 0 0 0 8.25082e-06 
-5.32121e-05 7.8121e-05 0 7.8121e-05 4.49613e-05 0 0 0 8.25082e-06 
-2.36786e-05 7.16388e-05 0 7.16388e-05 2.64565e-05 0 0 0 -2.77792e-06 
-3.89912e-05 6.42647e-05 0 6.42647e-05 4.17691e-05 0 0 0 -2.77792e-06 
-2.36913e-05 5.91104e-05 0 5.91104e-05 1.76759e-05 0 0 0 6.01532e-06 
-3.6326e-05 5.30258e-05 0 5.30258e-05 3.03107e-05 0 0 0 6.01532e-06 
-0.0319825 0.0380943 0 0.0380943 0.0442061 0 0 0 -0.0122235 
-0.0395042 0.0286624 0 0.0286624 0.0517277 0 0 0 -0.0122235 
-0.0201896 0.0159088 0 0.0159088 0.011628 0 0 0 0.00856162 
-0.0233308 0.0119699 0 0.0119699 0.0147692 0 0 0 0.00856162 
-0.00751307 0.00840167 0 0.00840167 0.00929026 0 0 0 -0.00177719 
-0.00917197 0.00632147 0 0.00632147 0.0109492 0 0 0 -0.00177719 
-0.00569862 0.00498822 0 0.00498822 0.00427783 0 0 0 0.0014208 
-0.00668354 0.00375317 0 0.00375317 0.00526274 0 0 0 0.0014208 
-0.00294663 0.00320896 0 0.00320896 0.0034713 0 0 0 -0.000524669 
-0.00358024 0.00241445 0 0.00241445 0.0041049 0 0 0 -0.000524669 
-0.00239545 0.00217206 0 0.00217206 0.00194867 0 0 0 0.000446784 
-0.00282433 0.00163427 0 0.00163427 0.00237754 0 0 0 0.000446784 
-0.00142613 0.00153058 0 0.00153058 0.00163503 0 0 0 -0.000208904 
-0.00172834 0.00115162 0 0.00115162 0.00193724 0 0 0 -0.000208904 
-0.00120223 0.00110938 0 0.00110938 0.00101652 0 0 0 0.000185711 
-0.00142128 0.000834702 0 0.000834702 0.00123557 0 0 0 0.000185711 
-0.000774617 0.000823579 0 0.000823579 0.000872541 0 0 0 -9.79237e-05 
-0.000937232 0.000619667 0 0.000619667 0.00103516 0 0 0 -9.79237e-05 
-0.000667649 0.000622344 0 0.000622344 0.00057704 0 0 0 9.06092e-05 
-0.00079053 0.000468256 0 0.000468256 0.000699921 0 0 0 9.06092e-05 
-0.000452395 0.000477733 0 0.000477733 0.000503071 0 0 0 -5.06754e-05 
-0.000546723 0.00035945 0 0.00035945 0.000597399 0 0 0 -5.06754e-05 
-0.000395751 0.00037117 0 0.00037117 0.000346589 0 0 0 4.91618e-05 
-0.000469038 0.000279271 0 0.000279271 0.000419876 0 0 0 4.91618e-05 
-0.000277621 0.000291564 0 0.000291564 0.000305507 0 0 0 -2.78864e-05 
-0.00033519 0.000219375 0 0.000219375 0.000363076 0 0 0 -2.78864e-05 
-0.000245436 0.000231016 0 0.000231016 0.000216596 0 0 0 2.88402e-05 
-0.00029105 0.000173818 0 0.000173818 0.00026221 0 0 0 2.88402e-05 
-0.00017657 0.000184517 0 0.000184517 0.000192463 0 0 0 -1.58927e-05 
-0.000213003 0.000138832 0 0.000138832 0.000228896 0 0 0 -1.58927e-05 
-0.000157332 0.000148324 0 0.000148324 0.000139317 0 0 0 1.80153e-05 
-0.000186618 0.0001116 0 0.0001116 0.000168603 0 0 0 1.80153e-05 
-0.000115373 0.000119954 0 0.000119954 0.000124536 0 0 0 -9.16372e-06 
-0.000139057 9.02546e-05 0 9.02546e-05 0.000148221 0 0 0 -9.16372e-06 
-0.00010343 9.74865e-05 0 9.74865e-05 9.15434e-05 0 0 0 1.18861e-05 
-0.000122678 7.33495e-05 0 7.33495e-05 0.000110792 0 0 0 1.18861e-05 
-7.69971e-05 7.95976e-05 0 7.95976e-05 8.21981e-05 0 0 0 -5.201e-06 
-9.27136e-05 5.98898e-05 0 5.98898e-05 9.79146e-05 0 0 0 -5.201e-06 
-6.93649e-05 6.52395e-05 0 6.52395e-05 6.11141e-05 0 0 0 8.25082e-06 
-8.22464e-05 4.90867e-05 0 4.90867e-05 7.39956e-05 0 0 0 8.25082e-06 
-5.2279e-05 5.3668e-05 0 5.3668e-05 5.50569e-05 0 0 0 -2.77792e-06 
-6.28757e-05 4.03802e-05 0 4.03802e-05 6.56536e-05 0 0 0 -2.77792e-06 
-4.729e-05 4.42823e-05 0 4.42823e-05 4.12747e-05 0 0 0 6.01532e-06 
-5.60335e-05 3.33183e-05 0 3.33183e-05 5.00181e-05 0 0 0 6.01532e-06 
-0.0447385 0.0177933 0 0.0177933 0.056962 0 0 0 -0.0122235 
-0.047423 0.00603191 0 0.00603191 0.0596465 0 0 0 -0.0122235 
-0.0255167 0.00743077 0 0.00743077 0.0169551 0 0 0 0.00856162 
-0.0266378 0.00251903 0 0.00251903 0.0180762 0 0 0 0.00856162 
-0.0103264 0.00392429 0 0.00392429 0.0121036 0 0 0 -0.00177719 
-0.0109184 0.00133033 0 0.00133033 0.0126956 0 0 0 -0.00177719 
-0.00736894 0.00232993 0 0.00232993 0.00594815 0 0 0 0.0014208 
-0.00772046 0.000789844 0 0.000789844 0.00629966 0 0 0 0.0014208 
-0.00402116 0.00149886 0 0.00149886 0.00454583 0 0 0 -0.000524669 
-0.00424729 0.000508113 0 0.000508113 0.00477196 0 0 0 -0.000524669 
-0.00312277 0.00101454 0 0.00101454 0.00267599 0 0 0 0.000446784 
-0.00327584 0.000343928 0 0.000343928 0.00282905 0 0 0 0.000446784 
-0.00193864 0.00071491 0 0.00071491 0.00214755 0 0 0 -0.000208904 
-0.0020465 0.000242354 0 0.000242354 0.0022554 0 0 0 -0.000208904 
-0.00157371 0.000518173 0 0.000518173 0.001388 0 0 0 0.000185711 
-0.00165189 0.00017566 0 0.00017566 0.00146617 0 0 0 0.000185711 
-0.00105039 0.000384682 0 0.000384682 0.00114832 0 0 0 -9.79237e-05 
-0.00110843 0.000130407 0 0.000130407 0.00120636 0 0 0 -9.79237e-05 
-0.000876043 0.000290688 0 0.000290688 0.000785434 0 0 0 9.06092e-05 
-0.000919898 9.85431e-05 0 9.85431e-05 0.000829289 0 0 0 9.06092e-05 
-0.000612366 0.000223142 0 0.000223142 0.000663041 0 0 0 -5.06754e-05 
-0.000646031 7.56451e-05 0 7.56451e-05 0.000696706 0 0 0 -5.06754e-05 
-0.000520038 0.000173368 0 0.000173368 0.000470876 0 0 0 4.91618e-05 
-0.000546194 5.87717e-05 0 5.87717e-05 0.000497032 0 0 0 4.91618e-05 
-0.000375252 0.000136185 0 0.000136185 0.000403138 0 0 0 -2.78864e-05 
-0.000395798 4.61668e-05 0 4.61668e-05 0.000423685 0 0 0 -2.78864e-05 
-0.000322792 0.000107904 0 0.000107904 0.000293952 0 0 0 2.88402e-05 
-0.000339072 3.65794e-05 0 3.65794e-05 0.000310231 0 0 0 2.88402e-05 
-0.000238356 8.61851e-05 0 8.61851e-05 0.000254249 0 0 0 -1.58927e-05 
-0.000251359 2.92167e-05 0 2.92167e-05 0.000267252 0 0 0 -1.58927e-05 
-0.000206999 6.92801e-05 0 6.92801e-05 0.000188983 0 0 0 1.80153e-05 
-0.000217451 2.34859e-05 0 2.34859e-05 0.000199436 0 0 0 1.80153e-05 
-0.00015554 5.6029e-05 0 5.6029e-05 0.000164703 0 0 0 -9.16372e-06 
-0.000163993 1.89938e-05 0 1.89938e-05 0.000173156 0 0 0 -9.16372e-06 
-0.000136073 4.55345e-05 0 4.55345e-05 0.000124187 0 0 0 1.18861e-05 
-0.000142943 1.54362e-05 0 1.54362e-05 0.000131057 0 0 0 1.18861e-05 
-0.000103651 3.71789e-05 0 3.71789e-05 0.000108852 0 0 0 -5.201e-06 
-0.00010926 1.26036e-05 0 1.26036e-05 0.000114461 0 0 0 -5.201e-06 
-9.12106e-05 3.04724e-05 0 3.04724e-05 8.29597e-05 0 0 0 8.25082e-06 
-9.58079e-05 1.03301e-05 0 1.03301e-05 8.75571e-05 0 0 0 8.25082e-06 
-7.02499e-05 2.50675e-05 0 2.50675e-05 7.30278e-05 0 0 0 -2.77792e-06 
-7.40318e-05 8.49788e-06 0 8.49788e-06 7.68097e-05 0 0 0 -2.77792e-06 
-6.2118e-05 2.06836e-05 0 2.06836e-05 5.61027e-05 0 0 0 6.01532e-06 
-6.52385e-05 7.01174e-06 0 7.01174e-06 5.92232e-05 0 0 0 6.01532e-06 
-0.047423 -0.00603191 0 -0.00603191 0.0596465 0 0 0 -0.0122235 
-0.0447385 -0.0177933 0 -0.0177933 0.056962 0 0 0 -0.0122235 
-0.0266378 -0.00251903 0 -0.00251903 0.0180762 0 0 0 0.00856162 
-0.0255167 -0.00743077 0 -0.00743077 0.0169551 0 0 0 0.00856162 
-0.0109184 -0.00133033 0 -0.00133033 0.0126956 0 0 0 -0.00177719 
-0.0103264 -0.00392429 0 -0.00392429 0.0121036 0 0 0 -0.00177719 
-0.00772046 -0.000789844 0 -0.000789844 0.00629966 0 0 0 0.0014208 
-0.00736894 -0.00232993 0 -0.00232993 0.00594815 0 0 0 0.0014208 
-0.00424729 -0.000508113 0 -0.000508113 0.00477196 0 0 0 -0.000524669 
-0.00402116 -0.00149886 0 -0.00149886 0.00454583 0 0 0 -0.000524669 
-0.00327584 -0.000343928 0 -0.000343928 0.00282905 0 0 0 0.000446784 
-0.00312277 -0.00101454 0 -0.00101454 0.00267599 0 0 0 0.000446784 
-0.0020465 -0.000242354 0 -0.000242354 0.0022554 0 0 0 -0.000208904 
-0.00193864 -0.00071491 0 -0.00071491 0.00214755 0 0 0 -0.000208904 
-0.00165189 -0.00017566 0 -0.00017566 0.00146617 0 0 0 0.000185711 
-0.00157371 -0.000518173 0 -0.000518173 0.001388 0 0 0 0.000185711 
-0.00110843 -0.000130407 0 -0.000130407 0.00120636 0 0 0 -9.79237e-05 
-0.00105039 -0.000384682 0 -0.000384682 0.00114832 0 0 0 -9.79237e-05 
-0.000919898 -9.85431e-05 0 -9.85431e-05 0.000829289 0 0 0 9.06092e-05 
-0.000876043 -0.000290688 0 -0.000290688 0.000785434 0 0 0 9.06092e-05 
-0.000646031 -7.56451e-05 0 -7.56451e-05 0.000696706 0 0 0 -5.06754e-05 
-0.000612366 -0.000223142 0 -0.000223142 0.000663041 0 0 0 -5.06754e-05 
-0.000546194 -5.87717e-05 0 -5.87717e-05 0.000497032 0 0 0 4.91618e-05 
-0.000520038 -0.000173368 0 -0.000173368 0.000470876 0 0 0 4.91618e-05 
-0.000395798 -4.61668e-05 0 -4.61668e-05 0.000423685 0 0 0 -2.78864e-05 
-0.000375252 -0.000136185 0 -0.000136185 0.000403138 0 0 0 -2.78864e-05 
-0.000339072 -3.65794e-05 0 -3.65794e-05 0.000310231 0 0 0 2.88402e-05 
-0.000322792 -0.000107904 0 -0.000107904 0.000293952 0 0 0 2.88402e-05 
-0.000251359 -2.92167e-05 0 -2.92167e-05 0.000267252 0 0 0 -1.58927e-05 
-0.000238356 -8.61851e-05 0 -8.61851e-05 0.000254249 0 0 0 -1.58927e-05 
-0.000217451 -2.34859e-05 0 -2.34859e-05 0.000199436 0 0 0 1.80153e-05 
-0.000206999 -6.92801e-05 0 -6.92801e-05 0.000188983 0 0 0 1.80153e-05 
-0.000163993 -1.89938e-05 0 -1.89938e-05 0.000173156 0 0 0 -9.16372e-06 
-0.00015554 -5.6029e-05 0 -5.6029e-05 0.000164703 0 0 0 -9.16372e-06 
-0.000142943 -1.54362e-05 0 -1.54362e-05 0.000131057 0 0 0 1.18861e-05 
-0.000136073 -4.55345e-05 0 -4.55345e-05 0.000124187 0 0 0 1.18861e-05 
-0.00010926 -1.26036e-05 0 -1.26036e-05 0.000114461 0 0 0 -5.201e-06 
-0.000103651 -3.71789e-05 0 -3.71789e-05 0.000108852 0 0 0 -5.201e-06 
-9.58079e-05 -1.03301e-05 0 -1.03301e-05 8.75571e-05 0 0 0 8.25082e-06 
-9.12106e-05 -3.04724e-05 0 -3.04724e-05 8.29597e-05 0 0 0 8.25082e-06 
-7.40318e-05 -8.49788e-06 0 -8.49788e-06 7.68097e-05 0 0 0 -2.77792e-06 
-7.02499e-05 -2.50675e-05 0 -2.50675e-05 7.30278e-05 0 0 0 -2.77792e-06 
-6.52385e-05 -7.01174e-06 0 -7.01174e-06 5.92232e-05 0 0 0 6.01532e-06 
-6.2118e-05 -2.06836e-05 0 -2.06836e-05 5.61027e-05 0 0 0 6.01532e-06 
-0.0395042 -0.0286624 0 -0.0286624 0.0517277 0 0 0 -0.0122235 
-0.0319825 -0.0380943 0 -0.0380943 0.0442061 0 0 0 -0.0122235 
-0.0233308 -0.0119699 0 -0.0119699 0.0147692 0 0 0 0.00856162 
-0.0201896 -0.0159088 0 -0.0159088 0.011628 0 0 0 0.00856162 
-0.00917197 -0.00632147 0 -0.00632147 0.0109492 0 0 0 -0.00177719 
-0.00751307 -0.00840167 0 -0.00840167 0.00929026 0 0 0 -0.00177719 
-0.00668354 -0.00375317 0 -0.00375317 0.00526274 0 0 0 0.0014208 
-0.00569862 -0.00498822 0 -0.00498822 0.00427783 0 0 0 0.0014208 
-0.00358024 -0.00241445 0 -0.00241445 0.0041049 0 0 0 -0.000524669 
-0.00294663 -0.00320896 0 -0.00320896 0.0034713 0 0 0 -0.000524669 
-0.00282433 -0.00163427 0 -0.00163427 0.00237754 0 0 0 0.000446784 
-0.00239545 -0.00217206 0 -0.00217206 0.00194867 0 0 0 0.000446784 
-0.00172834 -0.00115162 0 -0.00115162 0.00193724 0 0 0 -0.000208904 
-0.00142613 -0.00153058 0 -0.00153058 0.00163503 0 0 0 -0.000208904 
-0.00142128 -0.000834702 0 -0.000834702 0.00123557 0 0 0 0.000185711 
-0.00120223 -0.00110938 0 -0.00110938 0.00101652 0 0 0 0.000185711 
-0.000937232 -0.000619667 0 -0.000619667 0.00103516 0 0 0 -9.79237e-05 
-0.000774617 -0.000823579 0 -0.000823579 0.000872541 0 0 0 -9.79237e-05 
-0.00079053 -0.000468256 0 -0.000468256 0.000699921 0 0 0 9.06092e-05 
-0.000667649 -0.000622344 0 -0.000622344 0.00057704 0 0 0 9.06092e-05 
-0.000546723 -0.00035945 0 -0.00035945 0.000597399 0 0 0 -5.06754e-05 
-0.000452395 -0.000477733 0 -0.000477733 0.000503071 0 0 0 -5.06754e-05 
-0.000469038 -0.000279271 0 -0.000279271 0.000419876 0 0 0 4.91618e-05 
-0.000395751 -0.00037117 0 -0.00037117 0.000346589 0 0 0 4.91618e-05 
-0.00033519 -0.000219375 0 -0.000219375 0.000363076 0 0 0 -2.78864e-05 
-0.000277621 -0.000291564 0 -0.000291564 0.000305507 0 0 0 -2.78864e-05 
-0.00029105 -0.000173818 0 -0.000173818 0.00026221 0 0 0 2.88402e-05 
-0.000245436 -0.000231016 0 -0.000231016 0.000216596 0 0 0 2.88402e-05 
-0.000213003 -0.000138832 0 -0.000138832 0.000228896 0 0 0 -1.58927e-05 
-0.00017657 -0.000184517 0 -0.000184517 0.000192463 0 0 0 -1.58927e-05 
-0.000186618 -0.0001116 0 -0.0001116 0.000168603 0 0 0 1.80153e-05 
-0.000157332 -0.000148324 0 -0.000148324 0.000139317 0 0 0 1.80153e-05 
-0.000139057 -9.02546e-05 0 -9.02546e-05 0.000148221 0 0 0 -9.16372e-06 
-0.000115373 -0.000119954 0 -0.000119954 0.000124536 0 0 0 -9.16372e-06 
-0.000122678 -7.33495e-05 0 -7.33495e-05 0.000110792 0 0 0 1.18861e-05 
-0.00010343 -9.74865e-05 0 -9.74865e-05 9.15434e-05 0 0 0 1.18861e-05 
-9.27136e-05 -5.98898e-05 0 -5.98898e-05 9.79146e-05 0 0 0 -5.201e-06 
-7.69971e-05 -7.95976e-05 0 -7.95976e-05 8.21981e-05 0 0 0 -5.201e-06 
-8.22464e-05 -4.90867e-05 0 -4.90867e-05 7.39956e-05 0 0 0 8.25082e-06 
-6.93649e-05 -6.52395e-05 0 -6.52395e-05 6.11141e-05 0 0 0 8.25082e-06 
-6.28757e-05 -4.03802e-05 0 -4.03802e-05 6.56536e-05 0 0 0 -2.77792e-06 
-5.2279e-05 -5.3668e-05 0 -5.3668e-05 5.50569e-05 0 0 0 -2.77792e-06 
-5.60335e-05 -3.33183e-05 0 -3.33183e-05 5.00181e-05 0 0 0 6.01532e-06 
-4.729e-05 -4.42823e-05 0 -4.42823e-05 4.12747e-05 0 0 0 6.01532e-06 
-0.0225506 -0.045616 0 -0.045616 0.0347742 0 0 0 -0.0122235 
-0.0116815 -0.0508503 0 -0.0508503 0.023905 0 0 0 -0.0122235 
-0.0162507 -0.01905 0 -0.01905 0.00768909 0 0 0 0.00856162 
-0.0117116 -0.0212359 0 -0.0212359 0.00314996 0 0 0 0.00856162 
-0.00543288 -0.0100606 0 -0.0100606 0.00721007 0 0 0 -0.00177719 
-0.0030357 -0.011215 0 -0.011215 0.00481289 0 0 0 -0.00177719 
-0.00446357 -0.00597314 0 -0.00597314 0.00304278 0 0 0 0.0014208 
-0.00304032 -0.00665854 0 -0.00665854 0.00161953 0 0 0 0.0014208 
-0.00215211 -0.00384257 0 -0.00384257 0.00267678 0 0 0 -0.000524669 
-0.00123652 -0.00428349 0 -0.00428349 0.00176119 0 0 0 -0.000524669 
-0.00185767 -0.00260093 0 -0.00260093 0.00141088 0 0 0 0.000446784 
-0.00123793 -0.00289938 0 -0.00289938 0.000791146 0 0 0 0.000446784 
-0.00104716 -0.00183279 0 -0.00183279 0.00125607 0 0 0 -0.000208904 
-0.000610458 -0.00204309 0 -0.00204309 0.000819361 0 0 0 -0.000208904 
-0.000927558 -0.00132842 0 -0.00132842 0.000741847 0 0 0 0.000185711 
-0.000611029 -0.00148085 0 -0.00148085 0.000425317 0 0 0 0.000185711 
-0.000570705 -0.000986194 0 -0.000986194 0.000668629 0 0 0 -9.79237e-05 
-0.00033572 -0.00109936 0 -0.00109936 0.000433643 0 0 0 -9.79237e-05 
-0.000513561 -0.000745226 0 -0.000745226 0.000422952 0 0 0 9.06092e-05 
-0.000335992 -0.000830738 0 -0.000830738 0.000245383 0 0 0 9.06092e-05 
-0.000334112 -0.000572061 0 -0.000572061 0.000384787 0 0 0 -5.06754e-05 
-0.000197804 -0.000637703 0 -0.000637703 0.00024848 0 0 0 -5.06754e-05 
-0.000303852 -0.000444457 0 -0.000444457 0.00025469 0 0 0 4.91618e-05 
-0.000197949 -0.000495457 0 -0.000495457 0.000148787 0 0 0 4.91618e-05 
-0.000205432 -0.000349133 0 -0.000349133 0.000233318 0 0 0 -2.78864e-05 
-0.000122242 -0.000389195 0 -0.000389195 0.000150129 0 0 0 -2.78864e-05 
-0.000188238 -0.00027663 0 -0.00027663 0.000159398 0 0 0 2.88402e-05 
-0.000122324 -0.000308372 0 -0.000308372 9.3484e-05 0 0 0 2.88402e-05 
-0.000130885 -0.000220949 0 -0.000220949 0.000146778 0 0 0 -1.58927e-05 
-7.82387e-05 -0.000246303 0 -0.000246303 9.41314e-05 0 0 0 -1.58927e-05 
-0.000120608 -0.000177611 0 -0.000177611 0.000102593 0 0 0 1.80153e-05 
-7.82877e-05 -0.000197991 0 -0.000197991 6.02724e-05 0 0 0 1.80153e-05 
-8.56727e-05 -0.000143639 0 -0.000143639 9.48364e-05 0 0 0 -9.16372e-06 
-5.14471e-05 -0.000160122 0 -0.000160122 6.06108e-05 0 0 0 -9.16372e-06 
-7.92926e-05 -0.000116735 0 -0.000116735 6.74064e-05 0 0 0 1.18861e-05 
-5.14775e-05 -0.00013013 0 -0.00013013 3.95914e-05 0 0 0 1.18861e-05 
-5.72893e-05 -9.53141e-05 0 -9.53141e-05 6.24903e-05 0 0 0 -5.201e-06 
-3.45784e-05 -0.000106251 0 -0.000106251 3.97794e-05 0 0 0 -5.201e-06 
-5.32121e-05 -7.8121e-05 0 -7.8121e-05 4.49613e-05 0 0 0 8.25082e-06 
-3.45978e-05 -8.70851e-05 0 -8.70851e-05 2.6347e-05 0 0 0 8.25082e-06 
-3.89912e-05 -6.42647e-05 0 -6.42647e-05 4.17691e-05 0 0 0 -2.77792e-06 
-2.36786e-05 -7.16388e-05 0 -7.16388e-05 2.64565e-05 0 0 0 -2.77792e-06 
-3.6326e-05 -5.30258e-05 0 -5.30258e-05 3.03107e-05 0 0 0 6.01532e-06 
-2.36913e-05 -5.91104e-05 0 -5.91104e-05 1.76759e-05 0 0 0 6.01532e-06 
7.98504e-05 -0.0535347 0 -0.0535347 0.0121437 0 0 0 -0.0122235 
0.0121437 -0.0535347 0 -0.0535347 7.98499e-05 0 0 0 -0.0122235 
-0.00679984 -0.022357 0 -0.022357 -0.00176178 0 0 0 0.00856162 
-0.00176178 -0.022357 0 -0.022357 -0.00679984 0 0 0 0.00856162 
-0.000441738 -0.011807 0 -0.011807 0.00221893 0 0 0 -0.00177719 
0.00221893 -0.011807 0 -0.011807 -0.000441738 0 0 0 -0.00177719 
-0.00150024 -0.00701006 0 -0.00701006 7.94451e-05 0 0 0 0.0014208 
7.94451e-05 -0.00701006 0 -0.00701006 -0.00150024 0 0 0 0.0014208 
-0.000245778 -0.00450962 0 -0.00450962 0.000770447 0 0 0 -0.000524669 
0.000770447 -0.00450962 0 -0.00450962 -0.000245778 0 0 0 -0.000524669 
-0.00056732 -0.00305245 0 -0.00305245 0.000120536 0 0 0 0.000446784 
0.000120536 -0.00305245 0 -0.00305245 -0.00056732 0 0 0 0.000446784 
-0.000137902 -0.00215095 0 -0.00215095 0.000346806 0 0 0 -0.000208904 
0.000346806 -0.00215095 0 -0.00215095 -0.000137902 0 0 0 -0.000208904 
-0.000268516 -0.00155903 0 -0.00155903 8.28047e-05 0 0 0 0.000185711 
8.28047e-05 -0.00155903 0 -0.00155903 -0.000268516 0 0 0 0.000185711 
-8.1445e-05 -0.00115739 0 -0.00115739 0.000179369 0 0 0 -9.79237e-05 
0.000179369 -0.00115739 0 -0.00115739 -8.1445e-05 0 0 0 -9.79237e-05 
-0.000143848 -0.000874594 0 -0.000874594 5.32385e-05 0 0 0 9.06092e-05 
5.32385e-05 -0.000874594 0 -0.000874594 -0.000143848 0 0 0 9.06092e-05 
-5.03074e-05 -0.000671369 0 -0.000671369 0.000100983 0 0 0 -5.06754e-05 
0.000100983 -0.000671369 0 -0.000671369 -5.03074e-05 0 0 0 -5.06754e-05 
-8.33526e-05 -0.000521613 0 -0.000521613 3.41907e-05 0 0 0 4.91618e-05 
3.41907e-05 -0.000521613 0 -0.000521613 -8.33526e-05 0 0 0 4.91618e-05 
-3.22236e-05 -0.000409741 0 -0.000409741 6.011e-05 0 0 0 -2.78864e-05 
6.011e-05 -0.000409741 0 -0.000409741 -3.22236e-05 0 0 0 -2.78864e-05 
-5.09995e-05 -0.000324652 0 -0.000324652 2.21594e-05 0 0 0 2.88402e-05 
2.21594e-05 -0.000324652 0 -0.000324652 -5.09995e-05 0 0 0 2.88402e-05 
-2.12703e-05 -0.000259305 0 -0.000259305 3.71631e-05 0 0 0 -1.58927e-05 
3.71631e-05 -0.000259305 0 -0.000259305 -2.12703e-05 0 0 0 -1.58927e-05 
-3.24936e-05 -0.000208443 0 -0.000208443 1.44783e-05 0 0 0 1.80153e-05 
1.44783e-05 -0.000208443 0 -0.000208443 -3.24936e-05 0 0 0 1.80153e-05 
-1.44119e-05 -0.000168575 0 -0.000168575 2.35757e-05 0 0 0 -9.16372e-06 
2.35757e-05 -0.000168575 0 -0.000168575 -1.44119e-05 0 0 0 -9.16372e-06 
-2.13792e-05 -0.000137 0 -0.000137 9.49311e-06 0 0 0 1.18861e-05 
9.49311e-06 -0.000137 0 -0.000137 -2.13792e-05 0 0 0 1.18861e-05 
-1.00031e-05 -0.00011186 0 -0.00011186 1.52041e-05 0 0 0 -5.201e-06 
1.52041e-05 -0.00011186 0 -0.00011186 -1.00031e-05 0 0 0 -5.201e-06 
-1.44555e-05 -9.16825e-05 0 -9.16825e-05 6.20473e-06 0 0 0 8.25082e-06 
6.20473e-06 -9.16825e-05 0 -9.16825e-05 -1.44555e-05 0 0 0 8.25082e-06 
-7.10892e-06 -7.54207e-05 0 -7.54207e-05 9.88684e-06 0 0 0 -2.77792e-06 
9.88684e-06 -7.54207e-05 0 -7.54207e-05 -7.10892e-06 0 0 0 -2.77792e-06 
-1.00194e-05 -6.22309e-05 0 -6.22309e-05 4.00407e-06 0 0 0 6.01532e-06 
4.00407e-06 -6.22309e-05 0 -6.22309e-05 -1.00194e-05 0 0 0 6.01532e-06 
0.023905 -0.0508503 0 -0.0508503 -0.0116815 0 0 0 -0.0122235 
0.0347742 -0.045616 0 -0.045616 -0.0225506 0 0 0 -0.0122235 
0.00314996 -0.0212359 0 -0.0212359 -0.0117116 0 0 0 0.00856162 
0.00768909 -0.01905 0 -0.01905 -0.0162507 0 0 0 0.00856162 
0.00481289 -0.011215 0 -0.011215 -0.0030357 0 0 0 -0.00177719 
0.00721007 -0.0100606 0 -0.0100606 -0.00543288 0 0 0 -0.00177719 
0.00161953 -0.00665854 0 -0.00665854 -0.00304032 0 0 0 0.0014208 
0.00304278 -0.00597314 0 -0.00597314 -0.00446357 0 0 0 0.0014208 
0.00176119 -0.00428349 0 -0.00428349 -0.00123652 0 0 0 -0.000524669 
0.00267678 -0.00384257 0 -0.00384257 -0.00215211 0 0 0 -0.000524669 
0.000791146 -0.00289938 0 -0.00289938 -0.00123793 0 0 0 0.000446784 
0.00141088 -0.00260093 0 -0.00260093 -0.00185767 0 0 0 0.000446784 
0.000819361 -0.00204309 0 -0.00204309 -0.000610458 0 0 0 -0.000208904 
0.00125607 -0.00183279 0 -0.00183279 -0.00104716 0 0 0 -0.000208904 
0.000425317 -0.00148085 0 -0.00148085 -0.000611029 0 0 0 0.000185711 
0.000741847 -0.00132842 0 -0.00132842 -0.000927558 0 0 0 0.000185711 
0.000433643 -0.00109936 0 -0.00109936 -0.00033572 0 0 0 -9.79237e-05 
0.000668629 -0.000986194 0 -0.000986194 -0.000570705 0 0 0 -9.79237e-05 
0.000245383 -0.000830738 0 -0.000830738 -0.000335992 0 0 0 9.06092e-05 
0.000422952 -0.000745226 0 -0.000745226 -0.000513561 0 0 0 9.06092e-05 
0.00024848 -0.000637703 0 -0.000637703 -0.000197804 0 0 0 -5.06754e-05 
0.000384787 -0.000572061 0 -0.000572061 -0.000334112 0 0 0 -5.06754e-05 
0.000148787 -0.000495457 0 -0.000495457 -0.000197949 0 0 0 4.91618e-05 
0.00025469 -0.000444457 0 -0.000444457 -0.000303852 0 0 0 4.91618e-05 
0.000150129 -0.000389195 0 -0.000389195 -0.000122242 0 0 0 -2.78864e-05 
0.000233318 -0.000349133 0 -0.000349133 -0.000205432 0 0 0 -2.78864e-05 
9.3484e-05 -0.000308372 0 -0.000308372 -0.000122324 0 0 0 2.88402e-05 
0.000159398 -0.00027663 0 -0.00027663 -0.000188238 0 0 0 2.88402e-05 
9.41314e-05 -0.000246303 0 -0.000246303 -7.82387e-05 0 0 0 -1.58927e-05 
0.000146778 -0.000220949 0 -0.000220949 -0.000130885 0 0 0 -1.58927e-05 
6.02724e-05 -0.000197991 0 -0.000197991 -7.82877e-05 0 0 0 1.80153e-05 
0.000102593 -0.000177611 0 -0.000177611 -0.000120608 0 0 0 1.80153e-05 
6.06108e-05 -0.000160122 0 -0.000160122 -5.14471e-05 0 0 0 -9.16372e-06 
9.48364e-05 -0.000143639 0 -0.000143639 -8.56727e-05 0 0 0 -9.16372e-06 
3.95914e-05 -0.00013013 0 -0.00013013 -5.14775e-05 0 0 0 1.18861e-05 
6.74064e-05 -0.000116735 0 -0.000116735 -7.92926e-05 0 0 0 1.18861e-05 
3.97794e-05 -0.000106251 0 -0.000106251 -3.45784e-05 0 0 0 -5.201e-06 
6.24903e-05 -9.53141e-05 0 -9.53141e-05 -5.72893e-05 0 0 0 -5.201e-06 
2.6347e-05 -8.70851e-05 0 -8.70851e-05 -3.45978e-05 0 0 0 8.25082e-06 
4.49613e-05 -7.8121e-05 0 -7.8121e-05 -5.32121e-05 0 0 0 8.25082e-06 
2.64565e-05 -7.16388e-05 0 -7.16388e-05 -2.36786e-05 0 0 0 -2.77792e-06 
4.17691e-05 -6.42647e-05 0 -6.42647e-05 -3.89912e-05 0 0 0 -2.77792e-06 
1.76759e-05 -5.91104e-05 0 -5.91104e-05 -2.36913e-05 0 0 0 6.01532e-06 
3.03107e-05 -5.30258e-05 0 -5.30258e-05 -3.6326e-05 0 0 0 6.01532e-06 
0.0442061 -0.0380943 0 -0.0380943 -0.0319825 0 0 0 -0.0122235 
0.0517277 -0.0286624 0 -0.0286624 -0.0395042 0 0 0 -0.0122235 
0.011628 -0.0159088 0 -0.0159088 -0.0201896 0 0 0 0.00856162 
0.0147692 -0.0119699 0 -0.0119699 -0.0233308 0 0 0 0.00856162 
0.00929026 -0.00840167 0 -0.00840167 -0.00751307 0 0 0 -0.00177719 
0.0109492 -0.00632147 0 -0.00632147 -0.00917197 0 0 0 -0.00177719 
0.00427783 -0.00498822 0 -0.00498822 -0.00569862 0 0 0 0.0014208 
0.00526274 -0.00375317 0 -0.00375317 -0.00668354 0 0 0 0.0014208 
0.0034713 -0.00320896 0 -0.00320896 -0.00294663 0 0 0 -0.000524669 
0.0041049 -0.00241445 0 -0.00241445 -0.00358024 0 0 0 -0.000524669 
0.00194867 -0.00217206 0 -0.00217206 -0.00239545 0 0 0 0.000446784 
0.00237754 -0.00163427 0 -0.00163427 -0.00282433 0 0 0 0.000446784 
0.00163503 -0.00153058 0 -0.00153058 -0.00142613 0 0 0 -0.000208904 
0.00193724 -0.00115162 0 -0.00115162 -0.00172834 0 0 0 -0.000208904 
0.00101652 -0.00110938 0 -0.00110938 -0.00120223 0 0 0 0.000185711 
0.00123557 -0.000834702 0 -0.000834702 -0.00142128 0 0 0 0.000185711 
0.000872541 -0.000823579 0 -0.000823579 -0.000774617 0 0 0 -9.79237e-05 
0.00103516 -0.000619667 0 -0.000619667 -0.000937232 0 0 0 -9.79237e-05 
0.00057704 -0.000622344 0 -0.000622344 -0.000667649 0 0 0 9.06092e-05 
0.000699921 -0.000468256 0 -0.000468256 -0.00079053 0 0 0 9.06092e-05 
0.000503071 -0.000477733 0 -0.000477733 -0.000452395 0 0 0 -5.06754e-05 
0.000597399 -0.00035945 0 -0.00035945 -0.000546723 0 0 0 -5.06754e-05 
0.000346589 -0.00037117 0 -0.00037117 -0.000395751 0 0 0 4.91618e-05 
0.000419876 -0.000279271 0 -0.000279271 -0.000469038 0 0 0 4.91618e-05 
0.000305507 -0.000291564 0 -0.000291564 -0.000277621 0 0 0 -2.78864e-05 
0.000363076 -0.000219375 0 -0.000219375 -0.00033519 0 0 0 -2.78864e-05 
0.000216596 -0.000231016 0 -0.000231016 -0.000245436 0 0 0 2.88402e-05 
0.00026221 -0.000173818 0 -0.000173818 -0.00029105 0 0 0 2.88402e-05 
0.000192463 -0.000184517 0 -0.000184517 -0.00017657 0 0 0 -1.58927e-05 
0.000228896 -0.000138832 0 -0.000138832 -0.000213003 0 0 0 -1.58927e-05 
0.000139317 -0.000148324 0 -0.000148324 -0.000157332 0 0 0 1.80153e-05 
0.000168603 -0.0001116 0 -0.0001116 -0.000186618 0 0 0 1.80153e-05 
0.000124536 -0.000119954 0 -0.000119954 -0.000115373 0 0 0 -9.16372e-06 
0.000148221 -9.02546e-05 0 -9.02546e-05 -0.000139057 0 0 0 -9.16372e-06 
9.15434e-05 -9.74865e-05 0 -9.74865e-05 -0.00010343 0 0 0 1.18861e-05 
0.000110792 -7.33495e-05 0 -7.33495e-05 -0.000122678 0 0 0 1.18861e-05 
8.21981e-05 -7.95976e-05 0 -7.95976e-05 -7.69971e-05 0 0 0 -5.201e-06 
9.79146e-05 -5.98898e-05 0 -5.98898e-05 -9.27136e-05 0 0 0 -5.201e-06 
6.11141e-05 -6.52395e-05 0 -6.52395e-05 -6.93649e-05 0 0 0 8.25082e-06 
7.39956e-05 -4.90867e-05 0 -4.90867e-05 -8.22464e-05 0 0 0 8.25082e-06 
5.50569e-05 -5.3668e-05 0 -5.3668e-05 -5.2279e-05 0 0 0 -2.77792e-06 
6.56536e-05 -4.03802e-05 0 -4.03802e-05 -6.28757e-05 0 0 0 -2.77792e-06 
4.12747e-05 -4.42823e-05 0 -4.42823e-05 -4.729e-05 0 0 0 6.01532e-06 
5.00181e-05 -3.33183e-05 0 -3.33183e-05 -5.60335e-05 0 0 0 6.01532e-06 
0.056962 -0.0177933 0 -0.0177933 -0.0447385 0 0 0 -0.0122235 
0.0596465 -0.00603191 0 -0.00603191 -0.047423 0 0 0 -0.0122235 
0.0169551 -0.00743077 0 -0.00743077 -0.0255167 0 0 0 0.00856162 
0.0180762 -0.00251903 0 -0.00251903 -0.0266378 0 0 0 0.00856162 
0.0121036 -0.00392429 0 -0.00392429 -0.0103264 0 0 0 -0.00177719 
0.0126956 -0.00133033 0 -0.00133033 -0.0109184 0 0 0 -0.00177719 
0.00594815 -0.00232993 0 -0.00232993 -0.00736894 0 0 0 0.0014208 
0.00629966 -0.000789844 0 -0.000789844 -0.00772046 0 0 0 0.0014208 
0.00454583 -0.00149886 0 -0.00149886 -0.00402116 0 0 0 -0.000524669 
0.00477196 -0.000508113 0 -0.000508113 -0.00424729 0 0 0 -0.000524669 
0.00267599 -0.00101454 0 -0.00101454 -0.00312277 0 0 0 0.000446784 
0.00282905 -0.000343928 0 -0.000343928 -0.00327584 0 0 0 0.000446784 
0.00214755 -0.00071491 0 -0.00071491 -0.00193864 0 0 0 -0.000208904 
0.0022554 -0.000242354 0 -0.000242354 -0.0020465 0 0 0 -0.000208904 
0.001388 -0.000518173 0 -0.000518173 -0.00157371 0 0 0 0.000185711 
0.00146617 -0.00017566 0 -0.00017566 -0.00165189 0 0 0 0.000185711 
0.00114832 -0.000384682 0 -0.000384682 -0.00105039 0 0 0 -9.79237e-05 
0.00120636 -0.000130407 0 -0.000130407 -0.00110843 0 0 0 -9.79237e-05 
0.000785434 -0.000290688 0 -0.000290688 -0.000876043 0 0 0 9.06092e-05 
0.000829289 -9.85431e-05 0 -9.85431e-05 -0.000919898 0 0 0 9.06092e-05 
0.000663041 -0.000223142 0 -0.000223142 -0.000612366 0 0 0 -5.06754e-05 
0.000696706 -7.56451e-05 0 -7.56451e-05 -0.000646031 0 0 0 -5.06754e-05 
0.000470876 -0.000173368 0 -0.000173368 -0.000520038 0 0 0 4.91618e-05 
0.000497032 -5.87717e-05 0 -5.87717e-05 -0.000546194 0 0 0 4.91618e-05 
0.000403138 -0.000136185 0 -0.000136185 -0.000375252 0 0 0 -2.78864e-05 
0.000423685 -4.61668e-05 0 -4.61668e-05 -0.000395798 0 0 0 -2.78864e-05 
0.000293952 -0.000107904 0 -0.000107904 -0.000322792 0 0 0 2.88402e-05 
0.000310231 -3.65794e-05 0 -3.65794e-05 -0.000339072 0 0 0 2.88402e-05 
0.000254249 -8.61851e-05 0 -8.61851e-05 -0.000238356 0 0 0 -1.58927e-05 
0.000267252 -2.92167e-05 0 -2.92167e-05 -0.000251359 0 0 0 -1.58927e-05 
0.000188983 -6.92801e-05 0 -6.92801e-05 -0.000206999 0 0 0 1.80153e-05 
0.000199436 -2.34859e-05 0 -2.34859e-05 -0.000217451 0 0 0 1.80153e-05 
0.000164703 -5.6029e-05 0 -5.6029e-05 -0.00015554 0 0 0 -9.16372e-06 
0.000173156 -1.89938e-05 0 -1.89938e-05 -0.000163993 0 0 0 -9.16372e-06 
0.000124187 -4.55345e-05 0 -4.55345e-05 -0.000136073 0 0 0 1.18861e-05 
0.000131057 -1.54362e-05 0 -1.54362e-05 -0.000142943 0 0 0 1.18861e-05 
0.000108852 -3.71789e-05 0 -3.71789e-05 -0.000103651 0 0 0 -5.201e-06 
0.000114461 -1.26036e-05 0 -1.26036e-05 -0.00010926 0 0 0 -5.201e-06 
8.29597e-05 -3.04724e-05 0 -3.04724e-05 -9.12106e-05 0 0 0 8.25082e-06 
8.75571e-05 -1.03301e-05 0 -1.03301e-05 -9.58079e-05 0 0 0 8.25082e-06 
7.30278e-05 -2.50675e-05 0 -2.50675e-05 -7.02499e-05 0 0 0 -2.77792e-06 
7.68097e-05 -8.49788e-06 0 -8.49788e-06 -7.40318e-05 0 0 0 -2.77792e-06 
5.61027e-05 -2.06836e-05 0 -2.06836e-05 -6.2118e-05 0 0 0 6.01532e-06 
5.92232e-05 -7.01174e-06 0 -7.01174e-06 -6.52385e-05 0 0 0 6.01532e-06 
0.0596465 0.00603191 0 0.00603191 -0.047423 0 0 0 -0.0122235 
0.056962 0.0177933 0 0.0177933 -0.0447385 0 0 0 -0.0122235 
0.0180762 0.00251903 0 0.00251903 -0.0266378 0 0 0 0.00856162 
0.0169551 0.00743077 0 0.00743077 -0.0255167 0 0 0 0.00856162 
0.0126956 0.00133033 0 0.00133033 -0.0109184 0 0 0 -0.00177719 
0.0121036 0.00392429 0 0.00392429 -0.0103264 0 0 0 -0.00177719 
0.00629966 0.000789844 0 0.000789844 -0.00772046 0 0 0 0.0014208 
0.00594815 0.00232993 0 0.00232993 -0.00736894 0 0 0 0.0014208 
0.00477196 0.000508113 0 0.000508113 -0.00424729 0 0 0 -0.000524669 
0.00454583 0.00149886 0 0.00149886 -0.00402116 0 0 0 -0.000524669 
0.00282905 0.000343928 0 0.000343928 -0.00327584 0 0 0 0.000446784 
0.00267599 0.00101454 0 0.00101454 -0.00312277 0 0 0 0.000446784 
0.0022554 0.000242354 0 0.000242354 -0.0020465 0 0 0 -0.000208904 
0.00214755 0.00071491 0 0.00071491 -0.00193864 0 0 0 -0.000208904 
0.00146617 0.00017566 0 0.00017566 -0.00165189 0 0 0 0.000185711 
0.001388 0.000518173 0 0.000518173 -0.00157371 0 0 0 0.000185711 
0.00120636 0.000130407 0 0.000130407 -0.00110843 0 0 0 -9.79237e-05 
0.00114832 0.000384682 0 0.000384682 -0.00105039 0 0 0 -9.79237e-05 
0.000829289 9.85431e-05 0 9.85431e-05 -0.000919898 0 0 0 9.06092e-05 
0.000785434 0.000290688 0 0.000290688 -0.000876043 0 0 0 9.06092e-05 
0.000696706 7.56451e-05 0 7.56451e-05 -0.000646031 0 0 0 -5.06754e-05 
0.000663041 0.000223142 0 0.000223142 -0.000612366 0 0 0 -5.06754e-05 
0.000497032 5.87717e-05 0 5.87717e-05 -0.000546194 0 0 0 4.91618e-05 
0.000470876 0.000173368 0 0.000173368 -0.000520038 0 0 0 4.91618e-05 
0.000423685 4.61668e-05 0 4.61668e-05 -0.000395798 0 0 0 -2.78864e-05 
0.000403138 0.000136185 0 0.000136185 -0.000375252 0 0 0 -2.78864e-05 
0.000310231 3.65794e-05 0 3.65794e-05 -0.000339072 0 0 0 2.88402e-05 
0.000293952 0.000107904 0 0.000107904 -0.000322792 0 0 0 2.88402e-05 
0.000267252 2.92167e-05 0 2.92167e-05 -0.000251359 0 0 0 -1.58927e-05 
0.000254249 8.61851e-05 0 8.61851e-05 -0.000238356 0 0 0 -1.58927e-05 
0.000199436 2.34859e-05 0 2.34859e-05 -0.000217451 0 0 0 1.80153e-05 
0.000188983 6.92801e-05 0 6.92801e-05 -0.000206999 0 0 0 1.80153e-05 
0.000173156 1.89938e-05 0 1.89938e-05 -0.000163993 0 0 0 -9.16372e-06 
0.000164703 5.6029e-05 0 5.6029e-05 -0.00015554 0 0 0 -9.16372e-06 
0.000131057 1.54362e-05 0 1.54362e-05 -0.000142943 0 0 0 1.18861e-05 
0.000124187 4.55345e-05 0 4.55345e-05 -0.000136073 0 0 0 1.18861e-05 
0.000114461 1.26036e-05 0 1.26036e-05 -0.00010926 0 0 0 -5.201e-06 
0.000108852 3.71789e-05 0 3.71789e-05 -0.000103651 0 0 0 -5.201e-06 
8.75571e-05 1.03301e-05 0 1.03301e-05 -9.58079e-05 0 0 0 8.25082e-06 
8.29597e-05 3.04724e-05 0 3.04724e-05 -9.12106e-05 0 0 0 8.25082e-06 
7.68097e-05 8.49788e-06 0 8.49788e-06 -7.40318e-05 0 0 0 -2.77792e-06 
7.30278e-05 2.50675e-05 0 2.50675e-05 -7.02499e-05 0 0 0 -2.77792e-06 
5.92232e-05 7.01174e-06 0 7.01174e-06 -6.52385e-05 0 0 0 6.01532e-06 
5.61027e-05 2.06836e-05 0 2.06836e-05 -6.2118e-05 0 0 0 6.01532e-06 
0.0517277 0.0286624 0 0.0286624 -0.0395042 0 0 0 -0.0122235 
0.0442061 0.0380943 0 0.0380943 -0.0319825 0 0 0 -0.0122235 
0.0147692 0.0119699 0 0.0119699 -0.0233308 0 0 0 0.00856162 
0.011628 0.0159088 0 0.0159088 -0.0201896 0 0 0 0.00856162 
0.0109492 0.00632147 0 0.00632147 -0.00917197 0 0 0 -0.00177719 
0.00929026 0.00840167 0 0.00840167 -0.00751307 0 0 0 -0.00177719 
0.00526274 0.00375317 0 0.00375317 -0.00668354 0 0 0 0.0014208 
0.00427783 0.00498822 0 0.00498822 -0.00569862 0 0 0 0.0014208 
0.0041049 0.00241445 0 0.00241445 -0.00358024 0 0 0 -0.000524669 
0.0034713 0.00320896 0 0.00320896 -0.00294663 0 0 0 -0.000524669 
0.00237754 0.00163427 0 0.00163427 -0.00282433 0 0 0 0.000446784 
0.00194867 0.00217206 0 0.00217206 -0.00239545 0 0 0 0.000446784 
0.00193724 0.00115162 0 0.00115162 -0.00172834 0 0 0 -0.000208904 
0.00163503 0.00153058 0 0.00153058 -0.00142613 0 0 0 -0.000208904 
0.00123557 0.000834702 0 0.000834702 -0.00142128 0 0 0 0.000185711 
0.00101652 0.00110938 0 0.00110938 -0.00120223 0 0 0 0.000185711 
0.00103516 0.000619667 0 0.000619667 -0.000937232 0 0 0 -9.79237e-05 
0.000872541 0.000823579 0 0.000823579 -0.000774617 0 0 0 -9.79237e-05 
0.000699921 0.000468256 0 0.000468256 -0.00079053 0 0 0 9.06092e-05 
0.00057704 0.000622344 0 0.000622344 -0.000667649 0 0 0 9.06092e-05 
0.000597399 0.00035945 0 0.00035945 -0.000546723 0 0 0 -5.06754e-05 
0.000503071 0.000477733 0 0.000477733 -0.000452395 0 0 0 -5.06754e-05 
0.000419876 0.000279271 0 0.000279271 -0.000469038 0 0 0 4.91618e-05 
0.000346589 0.00037117 0 0.00037117 -0.000395751 0 0 0 4.91618e-05 
0.000363076 0.000219375 0 0.000219375 -0.00033519 0 0 0 -2.78864e-05 
0.000305507 0.000291564 0 0.000291564 -0.000277621 0 0 0 -2.78864e-05 
0.00026221 0.000173818 0 0.000173818 -0.00029105 0 0 0 2.88402e-05 
0.000216596 0.000231016 0 0.000231016 -0.000245436 0 0 0 2.88402e-05 
0.000228896 0.000138832 0 0.000138832 -0.000213003 0 0 0 -1.58927e-05 
0.000192463 0.000184517 0 0.000184517 -0.00017657 0 0 0 -1.58927e-05 
0.000168603 0.0001116 0 0.0001116 -0.000186618 0 0 0 1.80153e-05 
0.000139317 0.000148324 0 0.000148324 -0.000157332 0 0 0 1.80153e-05 
0.000148221 9.02546e-05 0 9.02546e-05 -0.000139057 0 0 0 -9.16372e-06 
0.000124536 0.000119954 0 0.000119954 -0.000115373 0 0 0 -9.16372e-06 
0.000110792 7.33495e-05 0 7.33495e-05 -0.000122678 0 0 0 1.18861e-05 
9.15434e-05 9.74865e-05 0 9.74865e-05 -0.00010343 0 0 0 1.18861e-05 
9.79146e-05 5.98898e-05 0 5.98898e-05 -9.27136e-05 0 0 0 -5.201e-06 
8.21981e-05 7.95976e-05 0 7.95976e-05 -7.69971e-05 0 0 0 -5.201e-06 
7.39956e-05 4.90867e-05 0 4.90867e-05 -8.22464e-05 0 0 0 8.25082e-06 
6.11141e-05 6.52395e-05 0 6.52395e-05 -6.93649e-05 0 0 0 8.25082e-06 
6.56536e-05 4.03802e-05 0 4.03802e-05 -6.28757e-05 0 0 0 -2.77792e-06 
5.50569e-05 5.3668e-05 0 5.3668e-05 -5.2279e-05 0 0 0 -2.77792e-06 
5.00181e-05 3.33183e-05 0 3.33183e-05 -5.60335e-05 0 0 0 6.01532e-06 
4.12747e-05 4.42823e-05 0 4.42823e-05 -4.729e-05 0 0 0 6.01532e-06 
0.0347742 0.045616 0 0.045616 -0.0225506 0 0 0 -0.0122235 
0.023905 0.0508503 0 0.0508503 -0.0116815 0 0 0 -0.0122235 
0.00768909 0.01905 0 0.01905 -0.0162507 0 0 0 0.00856162 
0.00314996 0.0212359 0 0.0212359 -0.0117116 0 0 0 0.00856162 
0.00721007 0.0100606 0 0.0100606 -0.00543288 0 0 0 -0.00177719 
0.00481289 0.011215 0 0.011215 -0.0030357 0 0 0 -0.00177719 
0.00304278 0.00597314 0 0.00597314 -0.00446357 0 0 0 0.0014208 
0.00161953 0.00665854 0 0.00665854 -0.00304032 0 0 0 0.0014208 
0.00267678 0.00384257 0 0.00384257 -0.00215211 0 0 0 -0.000524669 
0.00176119 0.00428349 0 0.00428349 -0.00123652 0 0 0 -0.000524669 
0.00141088 0.00260093 0 0.00260093 -0.00185767 0 0 0 0.000446784 
0.000791146 0.00289938 0 0.00289938 -0.00123793 0 0 0 0.000446784 
0.00125607 0.00183279 0 0.00183279 -0.00104716 0 0 0 -0.000208904 
0.000819361 0.00204309 0 0.00204309 -0.000610458 0 0 0 -0.000208904 
0.000741847 0.00132842 0 0.00132842 -0.000927558 0 0 0 0.000185711 
0.000425317 0.00148085 0 0.00148085 -0.000611029 0 0 0 0.000185711 
0.000668629 0.000986194 0 0.000986194 -0.000570705 0 0 0 -9.79237e-05 
0.000433643 0.00109936 0 0.00109936 -0.00033572 0 0 0 -9.79237e-05 
0.000422952 0.000745226 0 0.000745226 -0.000513561 0 0 0 9.06092e-05 
0.000245383 0.000830738 0 0.000830738 -0.000335992 0 0 0 9.06092e-05 
0.000384787 0.000572061 0 0.000572061 -0.000334112 0 0 0 -5.06754e-05 
0.00024848 0.000637703 0 0.000637703 -0.000197804 0 0 0 -5.06754e-05 
0.00025469 0.000444457 0 0.000444457 -0.000303852 0 0 0 4.91618e-05 
0.000148787 0.000495457 0 0.000495457 -0.000197949 0 0 0 4.91618e-05 
0.000233318 0.000349133 0 0.000349133 -0.000205432 0 0 0 -2.78864e-05 
0.000150129 0.000389195 0 0.000389195 -0.000122242 0 0 0 -2.78864e-05 
0.000159398 0.00027663 0 0.00027663 -0.000188238 0 0 0 2.88402e-05 
9.3484e-05 0.000308372 0 0.000308372 -0.000122324 0 0 0 2.88402e-05 
0.000146778 0.000220949 0 0.000220949 -0.000130885 0 0 0 -1.58927e-05 
9.41314e-05 0.000246303 0 0.000246303 -7.82387e-05 0 0 0 -1.58927e-05 
0.000102593 0.000177611 0 0.000177611 -0.000120608 0 0 0 1.80153e-05 
6.02724e-05 0.000197991 0 0.000197991 -7.82877e-05 0 0 0 1.80153e-05 
9.48364e-05 0.000143639 0 0.000143639 -8.56727e-05 0 0 0 -9.16372e-06 
6.06108e-05 0.000160122 0 0.000160122 -5.14471e-05 0 0 0 -9.16372e-06 
6.74064e-05 0.000116735 0 0.000116735 -7.92926e-05 0 0 0 1.18861e-05 
3.95914e-05 0.00013013 0 0.00013013 -5.14775e-05 0 0 0 1.18861e-05 
6.24903e-05 9.53141e-05 0 9.53141e-05 -5.72893e-05 0 0 0 -5.201e-06 
3.97794e-05 0.000106251 0 0.000106251 -3.45784e-05 0 0 0 -5.201e-06 
4.49613e-05 7.8121e-05 0 7.8121e-05 -5.32121e-05 0 0 0 8.25082e-06 
2.6347e-05 8.70851e-05 0 8.70851e-05 -3.45978e-05 0 0 0 8.25082e-06 
4.17691e-05 6.42647e-05 0 6.42647e-05 -3.89912e-05 0 0 0 -2.77792e-06 
2.64565e-05 7.16388e-05 0 7.16388e-05 -2.36786e-05 0 0 0 -2.77792e-06 
3.03107e-05 5.30258e-05 0 5.30258e-05 -3.6326e-05 0 0 0 6.01532e-06 
1.76759e-05 5.91104e-05 0 5.91104e-05 -2.36913e-05 0 0 0 6.01532e-06 
0.0121437 0.0535347 0 0.0535347 7.98504e-05 0 0 0 -0.0122235 
7.98499e-05 0.0535347 0 0.0535347 0.0121437 0 0 0 -0.0122235 
-0.00176178 0.022357 0 0.022357 -0.00679984 0 0 0 0.00856162 
-0.00679984 0.022357 0 0.022357 -0.00176178 0 0 0 0.00856162 
0.00221893 0.011807 0 0.011807 -0.000441738 0 0 0 -0.00177719 
-0.000441738 0.011807 0 0.011807 0.00221893 0 0 0 -0.00177719 
7.94451e-05 0.00701006 0 0.00701006 -0.00150024 0 0 0 0.0014208 
-0.00150024 0.00701006 0 0.00701006 7.94451e-05 0 0 0 0.0014208 
0.000770447 0.00450962 0 0.00450962 -0.000245778 0 0 0 -0.000524669 
-0.000245778 0.00450962 0 0.00450962 0.000770447 0 0 0 -0.000524669 
0.000120536 0.00305245 0 0.00305245 -0.00056732 0 0 0 0.000446784 
-0.00056732 0.00305245 0 0.00305245 0.000120536 0 0 0 0.000446784 
0.000346806 0.00215095 0 0.00215095 -0.000137902 0 0 0 -0.000208904 
-0.000137902 0.00215095 0 0.00215095 0.000346806 0 0 0 -0.000208904 
8.28047e-05 0.00155903 0 0.00155903 -0.000268516 0 0 0 0.000185711 
-0.000268516 0.00155903 0 0.00155903 8.28047e-05 0 0 0 0.000185711 
0.000179369 0.00115739 0 0.00115739 -8.1445e-05 0 0 0 -9.79237e-05 
-8.1445e-05 0.00115739 0 0.00115739 0.000179369 0 0 0 -9.79237e-05 
5.32385e-05 0.000874594 0 0.000874594 -0.000143848 0 0 0 9.06092e-05 
-0.000143848 0.000874594 0 0.000874594 5.32385e-05 0 0 0 9.06092e-05 
0.000100983 0.000671369 0 0.000671369 -5.03074e-05 0 0 0 -5.06754e-05 
-5.03074e-05 0.000671369 0 0.000671369 0.000100983 0 0 0 -5.06754e-05 
3.41907e-05 0.000521613 0 0.000521613 -8.33526e-05 0 0 0 4.91618e-05 
-8.33526e-05 0.000521613 0 0.000521613 3.41907e-05 0 0 0 4.91618e-05 
6.011e-05 0.000409741 0 0.000409741 -3.22236e-05 0 0 0 -2.78864e-05 
-3.22236e-05 0.000409741 0 0.000409741 6.011e-05 0 0 0 -2.78864e-05 
2.21594e-05 0.000324652 0 0.000324652 -5.09995e-05 0 0 0 2.88402e-05 
-5.09995e-05 0.000324652 0 0.000324652 2.21594e-05 0 0 0 2.88402e-05 
3.71631e-05 0.000259305 0 0.000259305 -2.12703e-05 0 0 0 -1.58927e-05 
-2.12703e-05 0.000259305 0 0.000259305 3.71631e-05 0 0 0 -1.58927e-05 
1.44783e-05 0.000208443 0 0.000208443 -3.24936e-05 0 0 0 1.80153e-05 
-3.24936e-05 0.000208443 0 0.000208443 1.44783e-05 0 0 0 1.80153e-05 
2.35757e-05 0.000168575 0 0.000168575 -1.44119e-05 0 0 0 -9.16372e-06 
-1.44119e-05 0.000168575 0 0.000168575 2.35757e-05 0 0 0 -9.16372e-06 
9.49311e-06 0.000137 0 0.000137 -2.13792e-05 0 0 0 1.18861e-05 
-2.13792e-05 0.000137 0 0.000137 9.49311e-06 0 0 0 1.18861e-05 
1.52041e-05 0.00011186 0 0.00011186 -1.00031e-05 0 0 0 -5.201e-06 
-1.00031e-05 0.00011186 0 0.00011186 1.52041e-05 0 0 0 -5.201e-06 
6.20473e-06 9.16825e-05 0 9.16825e-05 -1.44555e-05 0 0 0 8.25082e-06 
-1.44555e-05 9.16825e-05 0 9.16825e-05 6.20473e-06 0 0 0 8.25082e-06 
9.88684e-06 7.54207e-05 0 7.54207e-05 -7.10892e-06 0 0 0 -2.77792e-06 
-7.10892e-06 7.54207e-05 0 7.54207e-05 9.88684e-06 0 0 0 -2.77792e-06 
4.00407e-06 6.22309e-05 0 6.22309e-05 -1.00194e-05 0 0 0 6.01532e-06 
-1.00194e-05 6.22309e-05 0 6.22309e-05 4.00407e-06 0 0 0 6.01532e-06 
-0.0116815 0.0508503 0 0.0508503 0.023905 0 0 0 -0.0122235 
-0.0225506 0.045616 0 0.045616 0.0347742 0 0 0 -0.0122235 
-0.0117116 0.0212359 0 0.0212359 0.00314996 0 0 0 0.00856162 
-0.0162507 0.01905 0 0.01905 0.00768909 0 0 0 0.00856162 
-0.0030357 0.011215 0 0.011215 0.00481289 0 0 0 -0.00177719 
-0.00543288 0.0100606 0 0.0100606 0.00721007 0 0 0 -0.00177719 
-0.00304032 0.00665854 0 0.00665854 0.00161953 0 0 0 0.0014208 
-0.00446357 0.00597314 0 0.00597314 0.00304278 0 0 0 0.0014208 
-0.00123652 0.00428349 0 0.00428349 0.00176119 0 0 0 -0.000524669 
-0.00215211 0.00384257 0 0.00384257 0.00267678 0 0 0 -0.000524669 
-0.00123793 0.00289938 0 0.00289938 0.000791146 0 0 0 0.000446784 
-0.00185767 0.00260093 0 0.00260093 0.00141088 0 0 0 0.000446784 
-0.000610458 0.00204309 0 0.00204309 0.000819361 0 0 0 -0.000208904 
-0.00104716 0.00183279 0 0.00183279 0.00125607 0 0 0 -0.000208904 
-0.000611029 0.00148085 0 0.00148085 0.000425317 0 0 0 0.000185711 
-0.000927558 0.00132842 0 0.00132842 0.000741847 0 0 0 0.000185711 
-0.00033572 0.00109936 0 0.00109936 0.000433643 0 0 0 -9.79237e-05 
-0.000570705 0.000986194 0 0.000986194 0.000668629 0 0 0 -9.79237e-05 
-0.000335992 0.000830738 0 0.000830738 0.000245383 0 0 0 9.06092e-05 
-0.000513561 0.000745226 0 0.000745226 0.000422952 0 0 0 9.06092e-05 
-0.000197804 0.000637703 0 0.000637703 0.00024848 0 0 0 -5.06754e-05 
-0.000334112 0.000572061 0 0.000572061 0.000384787 0 0 0 -5.06754e-05 
-0.000197949 0.000495457 0 0.000495457 0.000148787 0 0 0 4.91618e-05 
-0.000303852 0.000444457 0 0.000444457 0.00025469 0 0 0 4.91618e-05 
-0.000122242 0.000389195 0 0.000389195 0.000150129 0 0 0 -2.78864e-05 
-0.000205432 0.000349133 0 0.000349133 0.000233318 0 0 0 -2.78864e-05 
-0.000122324 0.000308372 0 0.000308372 9.3484e-05 0 0 0 2.88402e-05 
-0.000188238 0.00027663 0 0.00027663 0.000159398 0 0 0 2.88402e-05 
-7.82387e-05 0.000246303 0 0.000246303 9.41314e-05 0 0 0 -1.58927e-05 
-0.000130885 0.000220949 0 0.000220949 0.000146778 0 0 0 -1.58927e-05 
-7.82877e-05 0.000197991 0 0.000197991 6.02724e-05 0 0 0 1.80153e-05 
-0.000120608 0.000177611 0 0.000177611 0.000102593 0 0 0 1.80153e-05 
-5.14471e-05 0.000160122 0 0.000160122 6.06108e-05 0 0 0 -9.16372e-06 
-8.56727e-05 0.000143639 0 0.000143639 9.48364e-05 0 0 0 -9.16372e-06 
-5.14775e-05 0.00013013 0 0.00013013 3.95914e-05 0 0 0 1.18861e-05 
-7.92926e-05 0.000116735 0 0.000116735 6.74064e-05 0 0 0 1.18861e-05 
-3.45784e-05 0.000106251 0 0.000106251 3.97794e-05 0 0 0 -5.201e-06 
-5.72893e-05 9.53141e-05 0 9.53141e-05 6.24903e-05 0 0 0 -5.201e-06 
-3.45978e-05 8.70851e-05 0 8.70851e-05 2.6347e-05 0 0 0 8.25082e-06 
-5.32121e-05 7.8121e-05 0 7.8121e-05 4.49613e-05 0 0 0 8.25082e-06 
-2.36786e-05 7.16388e-05 0 7.16388e-05 2.64565e-05 0 0 0 -2.77792e-06 
-3.89912e-05 6.42647e-05 0 6.42647e-05 4.17691e-05 0 0 0 -2.77792e-06 
-2.36913e-05 5.91104e-05 0 5.91104e-05 1.76759e-05 0 0 0 6.01532e-06 
-3.6326e-05 5.30258e-05 0 5.30258e-05 3.03107e-05 0 0 0 6.01532e-06 
-0.0319825 0.0380943 0 0.0380943 0.0442061 0 0 0 -0.0122235 
-0.0395042 0.0286624 0 0.0286624 0.0517277 0 0 0 -0.0122235 
-0.0201896 0.0159088 0 0.0159088 0.011628 0 0 0 0.00856162 
-0.0233308 0.0119699 0 0.0119699 0.0147692 0 0 0 0.00856162 
-0.00751307 0.00840167 0 0.00840167 0.00929026 0 0 0 -0.00177719 
-0.00917197 0.00632147 0 0.00632147 0.0109492 0 0 0 -0.00177719 
-0.00569862 0.00498822 0 0.00498822 0.00427783 0 0 0 0.0014208 
-0.00668354 0.00375317 0 0.00375317 0.00526274 0 0 0 0.0014208 
-0.00294663 0.00320896 0 0.00320896 0.0034713 0 0 0 -0.000524669 
-0.00358024 0.00241445 0 0.00241445 0.0041049 0 0 0 -0.000524669 
-0.00239545 0.00217206 0 0.00217206 0.00194867 0 0 0 0.000446784 
-0.00282433 0.00163427 0 0.00163427 0.00237754 0 0 0 0.000446784 
-0.00142613 0.00153058 0 0.00153058 0.00163503 0 0 0 -0.000208904 
-0.00172834 0.00115162 0 0.00115162 0.00193724 0 0 0 -0.000208904 
-0.00120223 0.00110938 0 0.00110938 0.00101652 0 0 0 0.000185711 
-0.00142128 0.000834702 0 0.000834702 0.00123557 0 0 0 0.000185711 
-0.000774617 0.000823579 0 0.000823579 0.000872541 0 0 0 -9.79237e-05 
-0.000937232 0.000619667 0 0.000619667 0.00103516 0 0 0 -9.79237e-05 
-0.000667649 0.000622344 0 0.000622344 0.00057704 0 0 0 9.06092e-05 
-0.00079053 0.000468256 0 0.000468256 0.000699921 0 0 0 9.06092e-05 
-0.000452395 0.000477733 0 0.000477733 0.000503071 0 0 0 -5.06754e-05 
-0.000546723 0.00035945 0 0.00035945 0.000597399 0 0 0 -5.06754e-05 
-0.000395751 0.00037117 0 0.00037117 0.000346589 0 0 0 4.91618e-05 
-0.000469038 0.000279271 0 0.000279271 0.000419876 0 0 0 4.91618e-05 
-0.000277621 0.000291564 0 0.000291564 0.000305507 0 0 0 -2.78864e-05 
-0.00033519 0.000219375 0 0.000219375 0.000363076 0 0 0 -2.78864e-05 
-0.000245436 0.000231016 0 0.000231016 0.000216596 0 0 0 2.88402e-05 
-0.00029105 0.000173818 0 0.000173818 0.00026221 0 0 0 2.88402e-05 
-0.00017657 0.000184517 0 0.000184517 0.000192463 0 0 0 -1.58927e-05 
-0.000213003 0.000138832 0 0.000138832 0.000228896 0 0 0 -1.58927e-05 
-0.000157332 0.000148324 0 0.000148324 0.000139317 0 0 0 1.80153e-05 
-0.000186618 0.0001116 0 0.0001116 0.000168603 0 0 0 1.80153e-05 
-0.000115373 0.000119954 0 0.000119954 0.000124536 0 0 0 -9.16372e-06 
-0.000139057 9.02546e-05 0 9.02546e-05 0.000148221 0 0 0 -9.16372e-06 
-0.00010343 9.74865e-05 0 9.74865e-05 9.15434e-05 0 0 0 1.18861e-05 
-0.000122678 7.33495e-05 0 7.33495e-05 0.000110792 0 0 0 1.18861e-05 
-7.69971e-05 7.95976e-05 0 7.95976e-05 8.21981e-05 0 0 0 -5.201e-06 
-9.27136e-05 5.98898e-05 0 5.98898e-05 9.79146e-05 0 0 0 -5.201e-06 
-6.93649e-05 6.52395e-05 0 6.52395e-05 6.11141e-05 0 0 0 8.25082e-06 
-8.22464e-05 4.90867e-05 0 4.90867e-05 7.39956e-05 0 0 0 8.25082e-06 
-5.2279e-05 5.3668e-05 0 5.3668e-05 5.50569e-05 0 0 0 -2.77792e-06 
-6.28757e-05 4.03802e-05 0 4.03802e-05 6.56536e-05 0 0 0 -2.77792e-06 
-4.729e-05 4.42823e-05 0 4.42823e-05 4.12747e-05 0 0 0 6.01532e-06 
-5.60335e-05 3.33183e-05 0 3.33183e-05 5.00181e-05 0 0 0 6.01532e-06 
-0.0447385 0.0177933 0 0.0177933 0.056962 0 0 0 -0.0122235 
-0.047423 0.00603191 0 0.00603191 0.0596465 0 0 0 -0.0122235 
-0.0255167 0.00743077 0 0.00743077 0.0169551 0 0 0 0.00856162 
-0.0266378 0.00251903 0 0.00251903 0.0180762 0 0 0 0.00856162 
-0.0103264 0.00392429 0 0.00392429 0.0121036 0 0 0 -0.00177719 
-0.0109184 0.00133033 0 0.00133033 0.0126956 0 0 0 -0.00177719 
-0.00736894 0.00232993 0 0.00232993 0.00594815 0 0 0 0.0014208 
-0.00772046 0.000789844 0 0.000789844 0.00629966 0 0 0 0.0014208 
-0.00402116 0.00149886 0 0.00149886 0.00454583 0 0 0 -0.000524669 
-0.00424729 0.000508113 0 0.000508113 0.00477196 0 0 0 -0.000524669 
-0.00312277 0.00101454 0 0.00101454 0.00267599 0 0 0 0.000446784 
-0.00327584 0.000343928 0 0.000343928 0.00282905 0 0 0 0.000446784 
-0.00193864 0.00071491 0 0.00071491 0.00214755 0 0 0 -0.000208904 
-0.0020465 0.000242354 0 0.000242354 0.0022554 0 0 0 -0.000208904 
-0.00157371 0.000518173 0 0.000518173 0.001388 0 0 0 0.000185711 
-0.00165189 0.00017566 0 0.00017566 0.00146617 0 0 0 0.000185711 
-0.00105039 0.000384682 0 0.000384682 0.00114832 0 0 0 -9.79237e-05 
-0.00110843 0.000130407 0 0.000130407 0.00120636 0 0 0 -9.79237e-05 
-0.000876043 0.000290688 0 0.000290688 0.000785434 0 0 0 9.06092e-05 
-0.000919898 9.85431e-05 0 9.85431e-05 0.000829289 0 0 0 9.06092e-05 
-0.000612366 0.000223142 0 0.000223142 0.000663041 0 0 0 -5.06754e-05 
-0.000646031 7.56451e-05 0 7.56451e-05 0.000696706 0 0 0 -5.06754e-05 
-0.000520038 0.000173368 0 0.000173368 0.000470876 0 0 0 4.91618e-05 
-0.000546194 5.87717e-05 0 5.87717e-05 0.000497032 0 0 0 4.91618e-05 
-0.000375252 0.000136185 0 0.000136185 0.000403138 0 0 0 -2.78864e-05 
-0.000395798 4.61668e-05 0 4.61668e-05 0.000423685 0 0 0 -2.78864e-05 
-0.000322792 0.000107904 0 0.000107904 0.000293952 0 0 0 2.88402e-05 
-0.000339072 3.65794e-05 0 3.65794e-05 0.000310231 0 0 0 2.88402e-05 
-0.000238356 8.61851e-05 0 8.61851e-05 0.000254249 0 0 0 -1.58927e-05 
-0.000251359 2.92167e-05 0 2.92167e-05 0.000267252 0 0 0 -1.58927e-05 
-0.000206999 6.92801e-05 0 6.92801e-05 0.000188983 0 0 0 1.80153e-05 
-0.000217451 2.34859e-05 0 2.34859e-05 0.000199436 0 0 0 1.80153e-05 
-0.00015554 5.6029e-05 0 5.6029e-05 0.000164703 0 0 0 -9.16372e-06 
-0.000163993 1.89938e-05 0 1.89938e-05 0.000173156 0 0 0 -9.16372e-06 
-0.000136073 4.55345e-05 0 4.55345e-05 0.000124187 0 0 0 1.18861e-05 
-0.000142943 1.54362e-05 0 1.54362e-05 0.000131057 0 0 0 1.18861e-05 
-0.000103651 3.71789e-05 0 3.71789e-05 0.000108852 0 0 0 -5.201e-06 
-0.00010926 1.26036e-05 0 1.26036e-05 0.000114461 0 0 0 -5.201e-06 
-9.12106e-05 3.04724e-05 0 3.04724e-05 8.29597e-05 0 0 0 8.25082e-06 
-9.58079e-05 1.03301e-05 0 1.03301e-05 8.75571e-05 0 0 0 8.25082e-06 
-7.02499e-05 2.50675e-05 0 2.50675e-05 7.30278e-05 0 0 0 -2.77792e-06 
-7.40318e-05 8.49788e-06 0 8.49788e-06 7.68097e-05 0 0 0 -2.77792e-06 
-6.2118e-05 2.06836e-05 0 2.06836e-05 5.61027e-05 0 0 0 6.01532e-06 
-6.52385e-05 7.01174e-06 0 7.01174e-06 5.92232e-05 0 0 0 6.01532e-06 

