# vtk DataFile Version 3.0
Arquivo gerado por PZ
ASCII

DATASET UNSTRUCTURED_GRID
POINTS 1088 float
-1.41421 2.82843 0
-2.22228 3.32588 0
-1.53073 3.69552 0
-2.22228 3.32588 0
1.41421 2.82843 0
1.53073 3.69552 0
2.22228 3.32588 0
1.53073 3.69552 0
7.24398e-12 2.82843 0
0.262425 3.5006 0
0.868347 3.33406 0
0.262425 3.5006 0
-0.868392 3.33451 0
-0.277266 3.51734 0
7.24398e-12 2.82843 0
-0.277266 3.51734 0
1.41421 2.82843 0
0.868347 3.33406 0
1.53073 3.69552 0
0.868347 3.33406 0
-1.53073 3.69552 0
-0.868392 3.33451 0
-1.41421 2.82843 0
-0.868392 3.33451 0
-0.780361 3.92314 0
-0.868392 3.33451 0
-1.53073 3.69552 0
-0.868392 3.33451 0
1.53073 3.69552 0
0.868347 3.33406 0
0.780361 3.92314 0
0.868347 3.33406 0
0.780361 3.92314 0
0.262425 3.5006 0
0 4 0
0.262425 3.5006 0
0 4 0
-0.277266 3.51734 0
-0.780361 3.92314 0
-0.277266 3.51734 0
-0.780361 3.92314 0
-0.277266 3.51734 0
-0.868392 3.33451 0
-0.277266 3.51734 0
0.868347 3.33406 0
0.262425 3.5006 0
0.780361 3.92314 0
0.262425 3.5006 0
0.262425 3.5006 0
-0.277266 3.51734 0
0 4 0
-0.277266 3.51734 0
7.24398e-12 2.82843 0
-0.277266 3.51734 0
0.262425 3.5006 0
-0.277266 3.51734 0
1.41421 2.82843 0
2.22228 3.32588 0
2.82843 2.82843 0
2.22228 3.32588 0
-1.41421 2.82843 0
-2.82843 2.82843 0
-2.22228 3.32588 0
-2.82843 2.82843 0
7.24398e-12 2.82843 0
0.868347 3.33406 0
1.41421 2.82843 0
0.868347 3.33406 0
-1.41421 2.82843 0
-0.868392 3.33451 0
7.24398e-12 2.82843 0
-0.868392 3.33451 0
-3.32588 -2.22228 0
-3.69552 -1.53073 0
-2.82843 -1.41421 0
-3.69552 -1.53073 0
-2.82843 1.41421 0
-3.69552 1.53073 0
-3.32588 2.22228 0
-3.69552 1.53073 0
-2.82843 7.24398e-12 0
-3.5006 0.262425 0
-3.33406 0.868347 0
-3.5006 0.262425 0
-3.33451 -0.868392 0
-3.51734 -0.277266 0
-2.82843 7.24398e-12 0
-3.51734 -0.277266 0
-2.82843 1.41421 0
-3.33406 0.868347 0
-3.69552 1.53073 0
-3.33406 0.868347 0
-3.69552 -1.53073 0
-3.33451 -0.868392 0
-2.82843 -1.41421 0
-3.33451 -0.868392 0
-3.92314 -0.780361 0
-3.33451 -0.868392 0
-3.69552 -1.53073 0
-3.33451 -0.868392 0
-3.69552 1.53073 0
-3.33406 0.868347 0
-3.92314 0.780361 0
-3.33406 0.868347 0
-3.92314 0.780361 0
-3.5006 0.262425 0
-4 0 0
-3.5006 0.262425 0
-4 0 0
-3.51734 -0.277266 0
-3.92314 -0.780361 0
-3.51734 -0.277266 0
-3.92314 -0.780361 0
-3.51734 -0.277266 0
-3.33451 -0.868392 0
-3.51734 -0.277266 0
-3.33406 0.868347 0
-3.5006 0.262425 0
-3.92314 0.780361 0
-3.5006 0.262425 0
-3.5006 0.262425 0
-3.51734 -0.277266 0
-4 0 0
-3.51734 -0.277266 0
-2.82843 7.24398e-12 0
-3.51734 -0.277266 0
-3.5006 0.262425 0
-3.51734 -0.277266 0
-2.82843 1.41421 0
-3.32588 2.22228 0
-2.82843 2.82843 0
-3.32588 2.22228 0
-2.82843 -2.82843 0
-3.32588 -2.22228 0
-2.82843 -1.41421 0
-3.32588 -2.22228 0
-2.82843 7.24398e-12 0
-3.33406 0.868347 0
-2.82843 1.41421 0
-3.33406 0.868347 0
-2.82843 -1.41421 0
-3.33451 -0.868392 0
-2.82843 7.24398e-12 0
-3.33451 -0.868392 0
1.53073 -3.69552 0
1.41421 -2.82843 0
2.22228 -3.32588 0
1.41421 -2.82843 0
-1.53073 -3.69552 0
-2.22228 -3.32588 0
-1.41421 -2.82843 0
-2.22228 -3.32588 0
-7.24398e-12 -2.82843 0
-0.262425 -3.5006 0
-0.868347 -3.33406 0
-0.262425 -3.5006 0
0.868392 -3.33451 0
0.277266 -3.51734 0
-7.24398e-12 -2.82843 0
0.277266 -3.51734 0
-1.41421 -2.82843 0
-0.868347 -3.33406 0
-1.53073 -3.69552 0
-0.868347 -3.33406 0
1.53073 -3.69552 0
0.868392 -3.33451 0
1.41421 -2.82843 0
0.868392 -3.33451 0
0.780361 -3.92314 0
0.868392 -3.33451 0
1.53073 -3.69552 0
0.868392 -3.33451 0
-1.53073 -3.69552 0
-0.868347 -3.33406 0
-0.780361 -3.92314 0
-0.868347 -3.33406 0
-0.780361 -3.92314 0
-0.262425 -3.5006 0
0 -4 0
-0.262425 -3.5006 0
0 -4 0
0.277266 -3.51734 0
0.780361 -3.92314 0
0.277266 -3.51734 0
0.780361 -3.92314 0
0.277266 -3.51734 0
0.868392 -3.33451 0
0.277266 -3.51734 0
-0.868347 -3.33406 0
-0.262425 -3.5006 0
-0.780361 -3.92314 0
-0.262425 -3.5006 0
-0.262425 -3.5006 0
0.277266 -3.51734 0
0 -4 0
0.277266 -3.51734 0
-7.24398e-12 -2.82843 0
0.277266 -3.51734 0
-0.262425 -3.5006 0
0.277266 -3.51734 0
-2.22228 -3.32588 0
-2.82843 -2.82843 0
-1.41421 -2.82843 0
-2.82843 -2.82843 0
2.22228 -3.32588 0
1.41421 -2.82843 0
2.82843 -2.82843 0
1.41421 -2.82843 0
-7.24398e-12 -2.82843 0
-0.868347 -3.33406 0
-1.41421 -2.82843 0
-0.868347 -3.33406 0
1.41421 -2.82843 0
0.868392 -3.33451 0
-7.24398e-12 -2.82843 0
0.868392 -3.33451 0
2.82843 1.41421 0
3.32588 2.22228 0
3.69552 1.53073 0
3.32588 2.22228 0
3.32588 -2.22228 0
2.82843 -1.41421 0
3.69552 -1.53073 0
2.82843 -1.41421 0
2.82843 -7.24398e-12 0
3.5006 -0.262425 0
3.33406 -0.868347 0
3.5006 -0.262425 0
3.33451 0.868392 0
3.51734 0.277266 0
2.82843 -7.24398e-12 0
3.51734 0.277266 0
2.82843 -1.41421 0
3.33406 -0.868347 0
3.69552 -1.53073 0
3.33406 -0.868347 0
3.69552 1.53073 0
3.33451 0.868392 0
2.82843 1.41421 0
3.33451 0.868392 0
3.92314 0.780361 0
3.33451 0.868392 0
3.69552 1.53073 0
3.33451 0.868392 0
3.69552 -1.53073 0
3.33406 -0.868347 0
3.92314 -0.780361 0
3.33406 -0.868347 0
3.92314 -0.780361 0
3.5006 -0.262425 0
4 0 0
3.5006 -0.262425 0
4 0 0
3.51734 0.277266 0
3.92314 0.780361 0
3.51734 0.277266 0
3.92314 0.780361 0
3.51734 0.277266 0
3.33451 0.868392 0
3.51734 0.277266 0
3.33406 -0.868347 0
3.5006 -0.262425 0
3.92314 -0.780361 0
3.5006 -0.262425 0
3.5006 -0.262425 0
3.51734 0.277266 0
4 0 0
3.51734 0.277266 0
2.82843 -7.24398e-12 0
3.51734 0.277266 0
3.5006 -0.262425 0
3.51734 0.277266 0
2.82843 1.41421 0
2.82843 2.82843 0
3.32588 2.22228 0
2.82843 2.82843 0
2.82843 -2.82843 0
2.82843 -1.41421 0
3.32588 -2.22228 0
2.82843 -1.41421 0
2.82843 -7.24398e-12 0
3.33406 -0.868347 0
2.82843 -1.41421 0
3.33406 -0.868347 0
2.82843 1.41421 0
3.33451 0.868392 0
2.82843 -7.24398e-12 0
3.33451 0.868392 0
0.6 0.6 0
0.3 0.6 0
1.15711 1.15711 0
0.578553 1.15711 0
0.3 0.6 0
1.56231e-12 0.6 0
0.578553 1.15711 0
2.98275e-12 1.15711 0
1.56231e-12 0.6 0
-0.3 0.6 0
2.98275e-12 1.15711 0
-0.578553 1.15711 0
-0.3 0.6 0
-0.6 0.6 0
-0.578553 1.15711 0
-1.15711 1.15711 0
1.15711 1.15711 0
0.578553 1.15711 0
1.71421 1.71421 0
0.857107 1.71421 0
0.578553 1.15711 0
2.98275e-12 1.15711 0
0.857107 1.71421 0
4.40317e-12 1.71421 0
2.98275e-12 1.15711 0
-0.578553 1.15711 0
4.40317e-12 1.71421 0
-0.857107 1.71421 0
-0.578553 1.15711 0
-1.15711 1.15711 0
-0.857107 1.71421 0
-1.71421 1.71421 0
1.71421 1.71421 0
0.857107 1.71421 0
2.27132 2.27132 0
1.13566 2.27132 0
0.857107 1.71421 0
4.40317e-12 1.71421 0
1.13566 2.27132 0
5.82352e-12 2.27132 0
4.40317e-12 1.71421 0
-0.857107 1.71421 0
5.82352e-12 2.27132 0
-1.13566 2.27132 0
-0.857107 1.71421 0
-1.71421 1.71421 0
-1.13566 2.27132 0
-2.27132 2.27132 0
2.27132 2.27132 0
1.13566 2.27132 0
2.82843 2.82843 0
1.41421 2.82843 0
1.13566 2.27132 0
5.82352e-12 2.27132 0
1.41421 2.82843 0
7.24398e-12 2.82843 0
5.82352e-12 2.27132 0
-1.13566 2.27132 0
7.24398e-12 2.82843 0
-1.41421 2.82843 0
-1.13566 2.27132 0
-2.27132 2.27132 0
-1.41421 2.82843 0
-2.82843 2.82843 0
-0.6 0.6 0
-0.6 0.3 0
-1.15711 1.15711 0
-1.15711 0.578553 0
-0.6 0.3 0
-0.6 1.56231e-12 0
-1.15711 0.578553 0
-1.15711 2.98275e-12 0
-0.6 1.56231e-12 0
-0.6 -0.3 0
-1.15711 2.98275e-12 0
-1.15711 -0.578553 0
-0.6 -0.3 0
-0.6 -0.6 0
-1.15711 -0.578553 0
-1.15711 -1.15711 0
-1.15711 1.15711 0
-1.15711 0.578553 0
-1.71421 1.71421 0
-1.71421 0.857107 0
-1.15711 0.578553 0
-1.15711 2.98275e-12 0
-1.71421 0.857107 0
-1.71421 4.40317e-12 0
-1.15711 2.98275e-12 0
-1.15711 -0.578553 0
-1.71421 4.40317e-12 0
-1.71421 -0.857107 0
-1.15711 -0.578553 0
-1.15711 -1.15711 0
-1.71421 -0.857107 0
-1.71421 -1.71421 0
-1.71421 1.71421 0
-1.71421 0.857107 0
-2.27132 2.27132 0
-2.27132 1.13566 0
-1.71421 0.857107 0
-1.71421 4.40317e-12 0
-2.27132 1.13566 0
-2.27132 5.82352e-12 0
-1.71421 4.40317e-12 0
-1.71421 -0.857107 0
-2.27132 5.82352e-12 0
-2.27132 -1.13566 0
-1.71421 -0.857107 0
-1.71421 -1.71421 0
-2.27132 -1.13566 0
-2.27132 -2.27132 0
-2.27132 2.27132 0
-2.27132 1.13566 0
-2.82843 2.82843 0
-2.82843 1.41421 0
-2.27132 1.13566 0
-2.27132 5.82352e-12 0
-2.82843 1.41421 0
-2.82843 7.24398e-12 0
-2.27132 5.82352e-12 0
-2.27132 -1.13566 0
-2.82843 7.24398e-12 0
-2.82843 -1.41421 0
-2.27132 -1.13566 0
-2.27132 -2.27132 0
-2.82843 -1.41421 0
-2.82843 -2.82843 0
-0.6 -0.6 0
-0.3 -0.6 0
-1.15711 -1.15711 0
-0.578553 -1.15711 0
-0.3 -0.6 0
-1.56231e-12 -0.6 0
-0.578553 -1.15711 0
-2.98275e-12 -1.15711 0
-1.56231e-12 -0.6 0
0.3 -0.6 0
-2.98275e-12 -1.15711 0
0.578553 -1.15711 0
0.3 -0.6 0
0.6 -0.6 0
0.578553 -1.15711 0
1.15711 -1.15711 0
-1.15711 -1.15711 0
-0.578553 -1.15711 0
-1.71421 -1.71421 0
-0.857107 -1.71421 0
-0.578553 -1.15711 0
-2.98275e-12 -1.15711 0
-0.857107 -1.71421 0
-4.40317e-12 -1.71421 0
-2.98275e-12 -1.15711 0
0.578553 -1.15711 0
-4.40317e-12 -1.71421 0
0.857107 -1.71421 0
0.578553 -1.15711 0
1.15711 -1.15711 0
0.857107 -1.71421 0
1.71421 -1.71421 0
-1.71421 -1.71421 0
-0.857107 -1.71421 0
-2.27132 -2.27132 0
-1.13566 -2.27132 0
-0.857107 -1.71421 0
-4.40317e-12 -1.71421 0
-1.13566 -2.27132 0
-5.82352e-12 -2.27132 0
-4.40317e-12 -1.71421 0
0.857107 -1.71421 0
-5.82352e-12 -2.27132 0
1.13566 -2.27132 0
0.857107 -1.71421 0
1.71421 -1.71421 0
1.13566 -2.27132 0
2.27132 -2.27132 0
-2.27132 -2.27132 0
-1.13566 -2.27132 0
-2.82843 -2.82843 0
-1.41421 -2.82843 0
-1.13566 -2.27132 0
-5.82352e-12 -2.27132 0
-1.41421 -2.82843 0
-7.24398e-12 -2.82843 0
-5.82352e-12 -2.27132 0
1.13566 -2.27132 0
-7.24398e-12 -2.82843 0
1.41421 -2.82843 0
1.13566 -2.27132 0
2.27132 -2.27132 0
1.41421 -2.82843 0
2.82843 -2.82843 0
0.6 -0.6 0
0.6 -0.3 0
1.15711 -1.15711 0
1.15711 -0.578553 0
0.6 -0.3 0
0.6 -1.56231e-12 0
1.15711 -0.578553 0
1.15711 -2.98275e-12 0
0.6 -1.56231e-12 0
0.6 0.3 0
1.15711 -2.98275e-12 0
1.15711 0.578553 0
0.6 0.3 0
0.6 0.6 0
1.15711 0.578553 0
1.15711 1.15711 0
1.15711 -1.15711 0
1.15711 -0.578553 0
1.71421 -1.71421 0
1.71421 -0.857107 0
1.15711 -0.578553 0
1.15711 -2.98275e-12 0
1.71421 -0.857107 0
1.71421 -4.40317e-12 0
1.15711 -2.98275e-12 0
1.15711 0.578553 0
1.71421 -4.40317e-12 0
1.71421 0.857107 0
1.15711 0.578553 0
1.15711 1.15711 0
1.71421 0.857107 0
1.71421 1.71421 0
1.71421 -1.71421 0
1.71421 -0.857107 0
2.27132 -2.27132 0
2.27132 -1.13566 0
1.71421 -0.857107 0
1.71421 -4.40317e-12 0
2.27132 -1.13566 0
2.27132 -5.82352e-12 0
1.71421 -4.40317e-12 0
1.71421 0.857107 0
2.27132 -5.82352e-12 0
2.27132 1.13566 0
1.71421 0.857107 0
1.71421 1.71421 0
2.27132 1.13566 0
2.27132 2.27132 0
2.27132 -2.27132 0
2.27132 -1.13566 0
2.82843 -2.82843 0
2.82843 -1.41421 0
2.27132 -1.13566 0
2.27132 -5.82352e-12 0
2.82843 -1.41421 0
2.82843 -7.24398e-12 0
2.27132 -5.82352e-12 0
2.27132 1.13566 0
2.82843 -7.24398e-12 0
2.82843 1.41421 0
2.27132 1.13566 0
2.27132 2.27132 0
2.82843 1.41421 0
2.82843 2.82843 0
0.215385 -0.322346 0
0.118588 -0.17779 0
0.22996 -0.155602 0
0.118588 -0.17779 0
0.322346 0.215385 0
0.17779 0.118588 0
0.155602 0.22996 0
0.17779 0.118588 0
-0.215385 0.322346 0
-0.118588 0.17779 0
-0.22996 0.155602 0
-0.118588 0.17779 0
-0.322346 -0.215385 0
-0.17779 -0.118588 0
-0.155602 -0.22996 0
-0.17779 -0.118588 0
0.0529469 -0.271443 0
0.118588 -0.17779 0
0.215385 -0.322346 0
0.118588 -0.17779 0
-0.0529469 0.271443 0
-0.118588 0.17779 0
-0.215385 0.322346 0
-0.118588 0.17779 0
-0.271443 -0.0529469 0
-0.17779 -0.118588 0
-0.322346 -0.215385 0
-0.17779 -0.118588 0
0.271443 0.0529469 0
0.17779 0.118588 0
0.322346 0.215385 0
0.17779 0.118588 0
0.0382683 0.092388 0
0.0912961 0.13697 0
0.0707107 0.0707107 0
0.0912961 0.13697 0
-0.092388 0.0382683 0
-0.13697 0.0912961 0
-0.0707107 0.0707107 0
-0.13697 0.0912961 0
-0.0382683 -0.092388 0
-0.0912961 -0.13697 0
-0.0707107 -0.0707107 0
-0.0912961 -0.13697 0
0.092388 -0.0382683 0
0.13697 -0.0912961 0
0.0707107 -0.0707107 0
0.13697 -0.0912961 0
-0.0382683 0.092388 0
-0.0309534 0.161322 0
-2.23431e-10 0.1 0
-0.0309534 0.161322 0
-0.092388 -0.0382683 0
-0.161322 -0.0309534 0
-0.1 -2.23431e-10 0
-0.161322 -0.0309534 0
0.092388 0.0382683 0
0.161322 0.0309534 0
0.1 2.23431e-10 0
0.161322 0.0309534 0
0.0382683 -0.092388 0
0.0309534 -0.161322 0
2.23431e-10 -0.1 0
0.0309534 -0.161322 0
-0.3 -0.6 0
-0.0826906 -0.371685 0
-1.56231e-12 -0.6 0
-0.0826906 -0.371685 0
-0.6 0.3 0
-0.371685 0.0826906 0
-0.6 1.56231e-12 0
-0.371685 0.0826906 0
0.3 0.6 0
0.0826906 0.371685 0
1.56231e-12 0.6 0
0.0826906 0.371685 0
0.6 -0.3 0
0.371685 -0.0826906 0
0.6 -1.56231e-12 0
0.371685 -0.0826906 0
0.3 -0.6 0
0.0971283 -0.433095 0
0.215385 -0.322346 0
0.0971283 -0.433095 0
-0.6 -0.3 0
-0.433095 -0.0971283 0
-0.322346 -0.215385 0
-0.433095 -0.0971283 0
-0.3 0.6 0
-0.0971283 0.433095 0
-0.215385 0.322346 0
-0.0971283 0.433095 0
0.6 0.3 0
0.433095 0.0971283 0
0.322346 0.215385 0
0.433095 0.0971283 0
-0.155602 -0.22996 0
-0.0460362 -0.221655 0
-0.0826906 -0.371685 0
-0.0460362 -0.221655 0
0.22996 -0.155602 0
0.221655 -0.0460362 0
0.371685 -0.0826906 0
0.221655 -0.0460362 0
-0.22996 0.155602 0
-0.221655 0.0460362 0
-0.371685 0.0826906 0
-0.221655 0.0460362 0
0.155602 0.22996 0
0.0460362 0.221655 0
0.0826906 0.371685 0
0.0460362 0.221655 0
-0.0826906 -0.371685 0
-0.0460362 -0.221655 0
0.0529469 -0.271443 0
-0.0460362 -0.221655 0
0.371685 -0.0826906 0
0.221655 -0.0460362 0
0.271443 0.0529469 0
0.221655 -0.0460362 0
0.0826906 0.371685 0
0.0460362 0.221655 0
-0.0529469 0.271443 0
0.0460362 0.221655 0
-0.371685 0.0826906 0
-0.221655 0.0460362 0
-0.271443 -0.0529469 0
-0.221655 0.0460362 0
-1.56231e-12 -0.6 0
0.0971283 -0.433095 0
0.3 -0.6 0
0.0971283 -0.433095 0
-0.6 1.56231e-12 0
-0.433095 -0.0971283 0
-0.6 -0.3 0
-0.433095 -0.0971283 0
0.6 -1.56231e-12 0
0.433095 0.0971283 0
0.6 0.3 0
0.433095 0.0971283 0
1.56231e-12 0.6 0
-0.0971283 0.433095 0
-0.3 0.6 0
-0.0971283 0.433095 0
-0.322346 -0.215385 0
-0.415762 -0.415249 0
-0.6 -0.3 0
-0.415762 -0.415249 0
0.215385 -0.322346 0
0.415249 -0.415762 0
0.3 -0.6 0
0.415249 -0.415762 0
0.322346 0.215385 0
0.415762 0.415249 0
0.6 0.3 0
0.415762 0.415249 0
-0.215385 0.322346 0
-0.415249 0.415762 0
-0.3 0.6 0
-0.415249 0.415762 0
-0.155602 -0.22996 0
-0.256464 -0.360861 0
-0.322346 -0.215385 0
-0.256464 -0.360861 0
0.155602 0.22996 0
0.256464 0.360861 0
0.322346 0.215385 0
0.256464 0.360861 0
-0.22996 0.155602 0
-0.360861 0.256464 0
-0.215385 0.322346 0
-0.360861 0.256464 0
0.22996 -0.155602 0
0.360861 -0.256464 0
0.215385 -0.322346 0
0.360861 -0.256464 0
0.13697 -0.0912961 0
0.0806501 -0.120819 0
0.0707107 -0.0707107 0
0.0806501 -0.120819 0
0.0912961 0.13697 0
0.120819 0.0806501 0
0.0707107 0.0707107 0
0.120819 0.0806501 0
-0.13697 0.0912961 0
-0.0806501 0.120819 0
-0.0707107 0.0707107 0
-0.0806501 0.120819 0
-0.0912961 -0.13697 0
-0.120819 -0.0806501 0
-0.0707107 -0.0707107 0
-0.120819 -0.0806501 0
-0.092388 0.0382683 0
-0.142467 0.0289294 0
-0.13697 0.0912961 0
-0.142467 0.0289294 0
0.0382683 0.092388 0
0.0289294 0.142467 0
0.0912961 0.13697 0
0.0289294 0.142467 0
-0.0382683 -0.092388 0
-0.0289294 -0.142467 0
-0.0912961 -0.13697 0
-0.0289294 -0.142467 0
0.092388 -0.0382683 0
0.142467 -0.0289294 0
0.13697 -0.0912961 0
0.142467 -0.0289294 0
-0.0309534 0.161322 0
0.0289294 0.142467 0
-2.23431e-10 0.1 0
0.0289294 0.142467 0
-0.161322 -0.0309534 0
-0.142467 0.0289294 0
-0.1 -2.23431e-10 0
-0.142467 0.0289294 0
0.161322 0.0309534 0
0.142467 -0.0289294 0
0.1 2.23431e-10 0
0.142467 -0.0289294 0
0.0309534 -0.161322 0
-0.0289294 -0.142467 0
2.23431e-10 -0.1 0
-0.0289294 -0.142467 0
-0.0382683 0.092388 0
-0.0806501 0.120819 0
-0.0309534 0.161322 0
-0.0806501 0.120819 0
-0.092388 -0.0382683 0
-0.120819 -0.0806501 0
-0.161322 -0.0309534 0
-0.120819 -0.0806501 0
0.092388 0.0382683 0
0.120819 0.0806501 0
0.161322 0.0309534 0
0.120819 0.0806501 0
0.0382683 -0.092388 0
0.0806501 -0.120819 0
0.0309534 -0.161322 0
0.0806501 -0.120819 0
-2.23431e-10 0.1 0
0.0289294 0.142467 0
0.0382683 0.092388 0
0.0289294 0.142467 0
-0.1 -2.23431e-10 0
-0.142467 0.0289294 0
-0.092388 0.0382683 0
-0.142467 0.0289294 0
0.1 2.23431e-10 0
0.142467 -0.0289294 0
0.092388 -0.0382683 0
0.142467 -0.0289294 0
2.23431e-10 -0.1 0
-0.0289294 -0.142467 0
-0.0382683 -0.092388 0
-0.0289294 -0.142467 0
0.0707107 0.0707107 0
0.120819 0.0806501 0
0.092388 0.0382683 0
0.120819 0.0806501 0
-0.0707107 0.0707107 0
-0.0806501 0.120819 0
-0.0382683 0.092388 0
-0.0806501 0.120819 0
-0.0707107 -0.0707107 0
-0.120819 -0.0806501 0
-0.092388 -0.0382683 0
-0.120819 -0.0806501 0
0.0707107 -0.0707107 0
0.0806501 -0.120819 0
0.0382683 -0.092388 0
0.0806501 -0.120819 0
-0.215385 0.322346 0
-0.0971283 0.433095 0
-0.0529469 0.271443 0
-0.0971283 0.433095 0
0.322346 0.215385 0
0.433095 0.0971283 0
0.271443 0.0529469 0
0.433095 0.0971283 0
-0.322346 -0.215385 0
-0.433095 -0.0971283 0
-0.271443 -0.0529469 0
-0.433095 -0.0971283 0
0.215385 -0.322346 0
0.0971283 -0.433095 0
0.0529469 -0.271443 0
0.0971283 -0.433095 0
-0.0826906 -0.371685 0
0.0971283 -0.433095 0
-1.56231e-12 -0.6 0
0.0971283 -0.433095 0
-0.371685 0.0826906 0
-0.433095 -0.0971283 0
-0.6 1.56231e-12 0
-0.433095 -0.0971283 0
0.0826906 0.371685 0
-0.0971283 0.433095 0
1.56231e-12 0.6 0
-0.0971283 0.433095 0
0.371685 -0.0826906 0
0.433095 0.0971283 0
0.6 -1.56231e-12 0
0.433095 0.0971283 0
-0.6 -0.6 0
-0.415762 -0.415249 0
-0.3 -0.6 0
-0.415762 -0.415249 0
-0.6 0.6 0
-0.415249 0.415762 0
-0.6 0.3 0
-0.415249 0.415762 0
0.6 -0.6 0
0.415249 -0.415762 0
0.6 -0.3 0
0.415249 -0.415762 0
0.6 0.6 0
0.415762 0.415249 0
0.3 0.6 0
0.415762 0.415249 0
-0.6 0.3 0
-0.415249 0.415762 0
-0.360861 0.256464 0
-0.415249 0.415762 0
0.6 -0.3 0
0.415249 -0.415762 0
0.360861 -0.256464 0
0.415249 -0.415762 0
0.3 0.6 0
0.415762 0.415249 0
0.256464 0.360861 0
0.415762 0.415249 0
-0.3 -0.6 0
-0.415762 -0.415249 0
-0.256464 -0.360861 0
-0.415762 -0.415249 0
-0.3 0.6 0
-0.415249 0.415762 0
-0.6 0.6 0
-0.415249 0.415762 0
-0.6 -0.3 0
-0.415762 -0.415249 0
-0.6 -0.6 0
-0.415762 -0.415249 0
0.3 -0.6 0
0.415249 -0.415762 0
0.6 -0.6 0
0.415249 -0.415762 0
0.6 0.3 0
0.415762 0.415249 0
0.6 0.6 0
0.415762 0.415249 0
-0.0826906 -0.371685 0
-0.256464 -0.360861 0
-0.155602 -0.22996 0
-0.256464 -0.360861 0
0.371685 -0.0826906 0
0.360861 -0.256464 0
0.22996 -0.155602 0
0.360861 -0.256464 0
0.0826906 0.371685 0
0.256464 0.360861 0
0.155602 0.22996 0
0.256464 0.360861 0
-0.371685 0.0826906 0
-0.360861 0.256464 0
-0.22996 0.155602 0
-0.360861 0.256464 0
-0.0529469 0.271443 0
-0.0971283 0.433095 0
0.0826906 0.371685 0
-0.0971283 0.433095 0
-0.271443 -0.0529469 0
-0.433095 -0.0971283 0
-0.371685 0.0826906 0
-0.433095 -0.0971283 0
0.271443 0.0529469 0
0.433095 0.0971283 0
0.371685 -0.0826906 0
0.433095 0.0971283 0
0.0529469 -0.271443 0
0.0971283 -0.433095 0
-0.0826906 -0.371685 0
0.0971283 -0.433095 0
0.256464 0.360861 0
0.415762 0.415249 0
0.322346 0.215385 0
0.415762 0.415249 0
-0.256464 -0.360861 0
-0.415762 -0.415249 0
-0.322346 -0.215385 0
-0.415762 -0.415249 0
0.360861 -0.256464 0
0.415249 -0.415762 0
0.215385 -0.322346 0
0.415249 -0.415762 0
-0.360861 0.256464 0
-0.415249 0.415762 0
-0.215385 0.322346 0
-0.415249 0.415762 0
-0.155602 -0.22996 0
-0.0912961 -0.13697 0
-0.0460362 -0.221655 0
-0.0912961 -0.13697 0
0.22996 -0.155602 0
0.13697 -0.0912961 0
0.221655 -0.0460362 0
0.13697 -0.0912961 0
-0.22996 0.155602 0
-0.13697 0.0912961 0
-0.221655 0.0460362 0
-0.13697 0.0912961 0
0.155602 0.22996 0
0.0912961 0.13697 0
0.0460362 0.221655 0
0.0912961 0.13697 0
-0.17779 -0.118588 0
-0.0912961 -0.13697 0
-0.155602 -0.22996 0
-0.0912961 -0.13697 0
0.118588 -0.17779 0
0.13697 -0.0912961 0
0.22996 -0.155602 0
0.13697 -0.0912961 0
-0.118588 0.17779 0
-0.13697 0.0912961 0
-0.22996 0.155602 0
-0.13697 0.0912961 0
0.17779 0.118588 0
0.0912961 0.13697 0
0.155602 0.22996 0
0.0912961 0.13697 0
0.221655 -0.0460362 0
0.161322 0.0309534 0
0.271443 0.0529469 0
0.161322 0.0309534 0
0.0460362 0.221655 0
-0.0309534 0.161322 0
-0.0529469 0.271443 0
-0.0309534 0.161322 0
-0.221655 0.0460362 0
-0.161322 -0.0309534 0
-0.271443 -0.0529469 0
-0.161322 -0.0309534 0
-0.0460362 -0.221655 0
0.0309534 -0.161322 0
0.0529469 -0.271443 0
0.0309534 -0.161322 0
-0.271443 -0.0529469 0
-0.161322 -0.0309534 0
-0.17779 -0.118588 0
-0.161322 -0.0309534 0
0.271443 0.0529469 0
0.161322 0.0309534 0
0.17779 0.118588 0
0.161322 0.0309534 0
-0.0529469 0.271443 0
-0.0309534 0.161322 0
-0.118588 0.17779 0
-0.0309534 0.161322 0
0.0529469 -0.271443 0
0.0309534 -0.161322 0
0.118588 -0.17779 0
0.0309534 -0.161322 0
0.13697 -0.0912961 0
0.142467 -0.0289294 0
0.221655 -0.0460362 0
0.142467 -0.0289294 0
0.0912961 0.13697 0
0.0289294 0.142467 0
0.0460362 0.221655 0
0.0289294 0.142467 0
-0.13697 0.0912961 0
-0.142467 0.0289294 0
-0.221655 0.0460362 0
-0.142467 0.0289294 0
-0.0912961 -0.13697 0
-0.0289294 -0.142467 0
-0.0460362 -0.221655 0
-0.0289294 -0.142467 0
-0.0460362 -0.221655 0
-0.0289294 -0.142467 0
0.0309534 -0.161322 0
-0.0289294 -0.142467 0
-0.221655 0.0460362 0
-0.142467 0.0289294 0
-0.161322 -0.0309534 0
-0.142467 0.0289294 0
0.221655 -0.0460362 0
0.142467 -0.0289294 0
0.161322 0.0309534 0
0.142467 -0.0289294 0
0.0460362 0.221655 0
0.0289294 0.142467 0
-0.0309534 0.161322 0
0.0289294 0.142467 0
-0.17779 -0.118588 0
-0.120819 -0.0806501 0
-0.0912961 -0.13697 0
-0.120819 -0.0806501 0
-0.118588 0.17779 0
-0.0806501 0.120819 0
-0.13697 0.0912961 0
-0.0806501 0.120819 0
0.17779 0.118588 0
0.120819 0.0806501 0
0.0912961 0.13697 0
0.120819 0.0806501 0
0.118588 -0.17779 0
0.0806501 -0.120819 0
0.13697 -0.0912961 0
0.0806501 -0.120819 0
-0.0309534 0.161322 0
-0.0806501 0.120819 0
-0.118588 0.17779 0
-0.0806501 0.120819 0
0.161322 0.0309534 0
0.120819 0.0806501 0
0.17779 0.118588 0
0.120819 0.0806501 0
0.0309534 -0.161322 0
0.0806501 -0.120819 0
0.118588 -0.17779 0
0.0806501 -0.120819 0
-0.161322 -0.0309534 0
-0.120819 -0.0806501 0
-0.17779 -0.118588 0
-0.120819 -0.0806501 0
0.3 0.6 0
0.256464 0.360861 0
0.0826906 0.371685 0
0.256464 0.360861 0
-0.6 0.3 0
-0.360861 0.256464 0
-0.371685 0.0826906 0
-0.360861 0.256464 0
-0.3 -0.6 0
-0.256464 -0.360861 0
-0.0826906 -0.371685 0
-0.256464 -0.360861 0
0.6 -0.3 0
0.360861 -0.256464 0
0.371685 -0.0826906 0
0.360861 -0.256464 0

CELLS 272 1360
4 0 2 3 1
4 4 6 7 5
4 8 10 11 9
4 12 14 15 13
4 16 18 19 17
4 20 22 23 21
4 24 26 27 25
4 28 30 31 29
4 32 34 35 33
4 36 38 39 37
4 40 42 43 41
4 44 46 47 45
4 48 50 51 49
4 52 54 55 53
4 56 58 59 57
4 60 62 63 61
4 64 66 67 65
4 68 70 71 69
4 72 74 75 73
4 76 78 79 77
4 80 82 83 81
4 84 86 87 85
4 88 90 91 89
4 92 94 95 93
4 96 98 99 97
4 100 102 103 101
4 104 106 107 105
4 108 110 111 109
4 112 114 115 113
4 116 118 119 117
4 120 122 123 121
4 124 126 127 125
4 128 130 131 129
4 132 134 135 133
4 136 138 139 137
4 140 142 143 141
4 144 146 147 145
4 148 150 151 149
4 152 154 155 153
4 156 158 159 157
4 160 162 163 161
4 164 166 167 165
4 168 170 171 169
4 172 174 175 173
4 176 178 179 177
4 180 182 183 181
4 184 186 187 185
4 188 190 191 189
4 192 194 195 193
4 196 198 199 197
4 200 202 203 201
4 204 206 207 205
4 208 210 211 209
4 212 214 215 213
4 216 218 219 217
4 220 222 223 221
4 224 226 227 225
4 228 230 231 229
4 232 234 235 233
4 236 238 239 237
4 240 242 243 241
4 244 246 247 245
4 248 250 251 249
4 252 254 255 253
4 256 258 259 257
4 260 262 263 261
4 264 266 267 265
4 268 270 271 269
4 272 274 275 273
4 276 278 279 277
4 280 282 283 281
4 284 286 287 285
4 288 290 291 289
4 292 294 295 293
4 296 298 299 297
4 300 302 303 301
4 304 306 307 305
4 308 310 311 309
4 312 314 315 313
4 316 318 319 317
4 320 322 323 321
4 324 326 327 325
4 328 330 331 329
4 332 334 335 333
4 336 338 339 337
4 340 342 343 341
4 344 346 347 345
4 348 350 351 349
4 352 354 355 353
4 356 358 359 357
4 360 362 363 361
4 364 366 367 365
4 368 370 371 369
4 372 374 375 373
4 376 378 379 377
4 380 382 383 381
4 384 386 387 385
4 388 390 391 389
4 392 394 395 393
4 396 398 399 397
4 400 402 403 401
4 404 406 407 405
4 408 410 411 409
4 412 414 415 413
4 416 418 419 417
4 420 422 423 421
4 424 426 427 425
4 428 430 431 429
4 432 434 435 433
4 436 438 439 437
4 440 442 443 441
4 444 446 447 445
4 448 450 451 449
4 452 454 455 453
4 456 458 459 457
4 460 462 463 461
4 464 466 467 465
4 468 470 471 469
4 472 474 475 473
4 476 478 479 477
4 480 482 483 481
4 484 486 487 485
4 488 490 491 489
4 492 494 495 493
4 496 498 499 497
4 500 502 503 501
4 504 506 507 505
4 508 510 511 509
4 512 514 515 513
4 516 518 519 517
4 520 522 523 521
4 524 526 527 525
4 528 530 531 529
4 532 534 535 533
4 536 538 539 537
4 540 542 543 541
4 544 546 547 545
4 548 550 551 549
4 552 554 555 553
4 556 558 559 557
4 560 562 563 561
4 564 566 567 565
4 568 570 571 569
4 572 574 575 573
4 576 578 579 577
4 580 582 583 581
4 584 586 587 585
4 588 590 591 589
4 592 594 595 593
4 596 598 599 597
4 600 602 603 601
4 604 606 607 605
4 608 610 611 609
4 612 614 615 613
4 616 618 619 617
4 620 622 623 621
4 624 626 627 625
4 628 630 631 629
4 632 634 635 633
4 636 638 639 637
4 640 642 643 641
4 644 646 647 645
4 648 650 651 649
4 652 654 655 653
4 656 658 659 657
4 660 662 663 661
4 664 666 667 665
4 668 670 671 669
4 672 674 675 673
4 676 678 679 677
4 680 682 683 681
4 684 686 687 685
4 688 690 691 689
4 692 694 695 693
4 696 698 699 697
4 700 702 703 701
4 704 706 707 705
4 708 710 711 709
4 712 714 715 713
4 716 718 719 717
4 720 722 723 721
4 724 726 727 725
4 728 730 731 729
4 732 734 735 733
4 736 738 739 737
4 740 742 743 741
4 744 746 747 745
4 748 750 751 749
4 752 754 755 753
4 756 758 759 757
4 760 762 763 761
4 764 766 767 765
4 768 770 771 769
4 772 774 775 773
4 776 778 779 777
4 780 782 783 781
4 784 786 787 785
4 788 790 791 789
4 792 794 795 793
4 796 798 799 797
4 800 802 803 801
4 804 806 807 805
4 808 810 811 809
4 812 814 815 813
4 816 818 819 817
4 820 822 823 821
4 824 826 827 825
4 828 830 831 829
4 832 834 835 833
4 836 838 839 837
4 840 842 843 841
4 844 846 847 845
4 848 850 851 849
4 852 854 855 853
4 856 858 859 857
4 860 862 863 861
4 864 866 867 865
4 868 870 871 869
4 872 874 875 873
4 876 878 879 877
4 880 882 883 881
4 884 886 887 885
4 888 890 891 889
4 892 894 895 893
4 896 898 899 897
4 900 902 903 901
4 904 906 907 905
4 908 910 911 909
4 912 914 915 913
4 916 918 919 917
4 920 922 923 921
4 924 926 927 925
4 928 930 931 929
4 932 934 935 933
4 936 938 939 937
4 940 942 943 941
4 944 946 947 945
4 948 950 951 949
4 952 954 955 953
4 956 958 959 957
4 960 962 963 961
4 964 966 967 965
4 968 970 971 969
4 972 974 975 973
4 976 978 979 977
4 980 982 983 981
4 984 986 987 985
4 988 990 991 989
4 992 994 995 993
4 996 998 999 997
4 1000 1002 1003 1001
4 1004 1006 1007 1005
4 1008 1010 1011 1009
4 1012 1014 1015 1013
4 1016 1018 1019 1017
4 1020 1022 1023 1021
4 1024 1026 1027 1025
4 1028 1030 1031 1029
4 1032 1034 1035 1033
4 1036 1038 1039 1037
4 1040 1042 1043 1041
4 1044 1046 1047 1045
4 1048 1050 1051 1049
4 1052 1054 1055 1053
4 1056 1058 1059 1057
4 1060 1062 1063 1061
4 1064 1066 1067 1065
4 1068 1070 1071 1069
4 1072 1074 1075 1073
4 1076 1078 1079 1077
4 1080 1082 1083 1081
4 1084 1086 1087 1085

CELL_TYPES 272
9
9
9
9
9
9
9
9
9
9
9
9
9
9
9
9
9
9
9
9
9
9
9
9
9
9
9
9
9
9
9
9
9
9
9
9
9
9
9
9
9
9
9
9
9
9
9
9
9
9
9
9
9
9
9
9
9
9
9
9
9
9
9
9
9
9
9
9
9
9
9
9
9
9
9
9
9
9
9
9
9
9
9
9
9
9
9
9
9
9
9
9
9
9
9
9
9
9
9
9
9
9
9
9
9
9
9
9
9
9
9
9
9
9
9
9
9
9
9
9
9
9
9
9
9
9
9
9
9
9
9
9
9
9
9
9
9
9
9
9
9
9
9
9
9
9
9
9
9
9
9
9
9
9
9
9
9
9
9
9
9
9
9
9
9
9
9
9
9
9
9
9
9
9
9
9
9
9
9
9
9
9
9
9
9
9
9
9
9
9
9
9
9
9
9
9
9
9
9
9
9
9
9
9
9
9
9
9
9
9
9
9
9
9
9
9
9
9
9
9
9
9
9
9
9
9
9
9
9
9
9
9
9
9
9
9
9
9
9
9
9
9
9
9
9
9
9
9
9
9
9
9
9
9
9
9
9
9
9
9
9
9
9
9
9
9
9
9
9
9
9
9

POINT_DATA 1088
SCALARS FailureType float
LOOKUP_TABLE default
1 
1 
1 
1 
1 
1 
1 
1 
1 
1 
1 
1 
1 
1 
1 
1 
1 
1 
1 
1 
1 
1 
1 
1 
1 
1 
1 
1 
1 
1 
1 
1 
1 
1 
1 
1 
1 
1 
1 
1 
1 
1 
1 
1 
1 
1 
1 
1 
1 
1 
1 
1 
1 
1 
1 
1 
1 
1 
1 
1 
1 
1 
1 
1 
1 
1 
1 
1 
1 
1 
1 
1 
1 
1 
1 
1 
1 
1 
1 
1 
1 
1 
1 
1 
1 
1 
1 
1 
1 
1 
1 
1 
1 
1 
1 
1 
1 
1 
1 
1 
1 
1 
1 
1 
1 
1 
1 
1 
1 
1 
1 
1 
1 
1 
1 
1 
1 
1 
1 
1 
1 
1 
1 
1 
1 
1 
1 
1 
1 
1 
1 
1 
1 
1 
1 
1 
1 
1 
1 
1 
1 
1 
1 
1 
1 
1 
1 
1 
1 
1 
1 
1 
1 
1 
1 
1 
1 
1 
1 
1 
1 
1 
1 
1 
1 
1 
1 
1 
1 
1 
1 
1 
1 
1 
1 
1 
1 
1 
1 
1 
1 
1 
1 
1 
1 
1 
1 
1 
1 
1 
1 
1 
1 
1 
1 
1 
1 
1 
1 
1 
1 
1 
1 
1 
1 
1 
1 
1 
1 
1 
1 
1 
1 
1 
1 
1 
1 
1 
1 
1 
1 
1 
1 
1 
1 
1 
1 
1 
1 
1 
1 
1 
1 
1 
1 
1 
1 
1 
1 
1 
1 
1 
1 
1 
1 
1 
1 
1 
1 
1 
1 
1 
1 
1 
1 
1 
1 
1 
1 
1 
1 
1 
1 
1 
1 
1 
1 
1 
1 
1 
1 
1 
1 
1 
1 
1 
1 
1 
1 
1 
1 
1 
1 
1 
1 
1 
1 
1 
1 
1 
1 
1 
1 
1 
1 
1 
1 
1 
1 
1 
1 
1 
1 
1 
1 
1 
1 
1 
1 
1 
1 
1 
1 
1 
1 
1 
1 
1 
1 
1 
1 
1 
1 
1 
1 
1 
1 
1 
1 
1 
1 
1 
1 
1 
1 
1 
1 
1 
1 
1 
1 
1 
1 
1 
1 
1 
1 
1 
1 
1 
1 
1 
1 
1 
1 
1 
1 
1 
1 
1 
1 
1 
1 
1 
1 
1 
1 
1 
1 
1 
1 
1 
1 
1 
1 
1 
1 
1 
1 
1 
1 
1 
1 
1 
1 
1 
1 
1 
1 
1 
1 
1 
1 
1 
1 
1 
1 
1 
1 
1 
1 
1 
1 
1 
1 
1 
1 
1 
1 
1 
1 
1 
1 
1 
1 
1 
1 
1 
1 
1 
1 
1 
1 
1 
1 
1 
1 
1 
1 
1 
1 
1 
1 
1 
1 
1 
1 
1 
1 
1 
1 
1 
1 
1 
1 
1 
1 
1 
1 
1 
1 
1 
1 
1 
1 
1 
1 
1 
1 
1 
1 
1 
1 
1 
1 
1 
1 
1 
1 
1 
1 
1 
1 
1 
1 
1 
1 
1 
1 
1 
1 
1 
1 
1 
1 
1 
1 
1 
1 
1 
1 
1 
1 
1 
1 
1 
1 
1 
1 
1 
1 
1 
1 
1 
1 
1 
1 
1 
1 
1 
1 
1 
1 
1 
1 
1 
1 
1 
1 
1 
1 
1 
1 
1 
1 
1 
1 
1 
1 
1 
1 
1 
1 
1 
1 
1 
1 
1 
1 
1 
1 
1 
1 
1 
1 
1 
1 
1 
1 
1 
1 
1 
1 
1 
1 
1 
1 
1 
1 
1 
1 
1 
1 
1 
1 
1 
1 
1 
1 
1 
1 
1 
1 
1 
1 
1 
1 
1 
1 
1 
1 
1 
1 
1 
1 
1 
1 
1 
1 
1 
1 
1 
1 
1 
1 
1 
1 
1 
1 
1 
1 
1 
1 
1 
1 
1 
1 
1 
1 
1 
1 
1 
1 
1 
1 
1 
1 
1 
1 
1 
1 
1 
1 
1 
1 
1 
1 
1 
1 
1 
1 
1 
1 
1 
1 
1 
1 
1 
1 
1 
1 
1 
1 
1 
1 
1 
1 
1 
1 
1 
1 
1 
1 
1 
1 
1 
1 
1 
1 
1 
1 
1 
1 
1 
1 
1 
1 
1 
1 
1 
1 
1 
1 
1 
1 
1 
1 
1 
1 
1 
1 
1 
1 
1 
1 
1 
1 
1 
1 
1 
1 
1 
1 
1 
1 
1 
1 
1 
1 
1 
1 
1 
1 
1 
1 
1 
1 
1 
1 
1 
1 
1 
1 
1 
1 
1 
1 
1 
1 
1 
1 
1 
1 
1 
1 
1 
1 
1 
1 
1 
1 
1 
1 
1 
1 
1 
1 
1 
1 
1 
1 
1 
1 
1 
1 
1 
1 
1 
1 
1 
1 
1 
1 
1 
1 
1 
1 
1 
1 
1 
1 
1 
1 
1 
1 
1 
1 
1 
1 
1 
1 
1 
1 
1 
1 
1 
1 
1 
1 
1 
1 
1 
1 
1 
1 
1 
1 
1 
1 
1 
1 
1 
1 
1 
1 
1 
1 
1 
1 
1 
1 
1 
1 
1 
1 
1 
1 
1 
1 
1 
1 
1 
1 
1 
1 
1 
1 
1 
1 
1 
1 
1 
1 
1 
1 
1 
1 
1 
1 
1 
1 
1 
1 
1 
1 
1 
1 
1 
1 
1 
1 
1 
1 
1 
1 
1 
1 
1 
1 
1 
1 
1 
1 
1 
1 
1 
1 
1 
1 
1 
1 
1 
1 
1 
1 
1 
1 
1 
1 
1 
1 
1 
1 
1 
1 
1 
1 
1 
1 
1 
1 
1 
1 
1 
1 
1 
1 
1 
1 
1 
1 
1 
1 
1 
1 
1 
1 
1 
1 
1 
1 
1 
1 
1 
1 
1 
1 
1 
1 
1 
1 
1 
1 
1 
1 
1 
1 
1 
1 
1 
1 
1 
1 
1 
1 
1 
1 
1 
1 
1 
1 
1 
1 
1 
1 
1 
1 
1 
1 
1 
1 
1 
1 
1 
1 
1 
1 
1 
1 
1 
1 
1 
1 
1 
1 
1 
1 
1 
1 
1 
1 
1 
1 
1 
1 
1 
1 
1 
1 
1 
1 
1 
1 
1 
1 
1 
1 
1 
1 
1 
1 
1 
1 
1 
1 
1 
1 
1 
1 
1 
1 
1 
1 
1 
1 
1 
1 
1 
1 
1 
1 
1 
1 
1 
1 
1 
1 
1 
1 
1 
1 
1 
1 
1 
1 
1 
1 
1 
1 
1 
1 
1 
1 
1 
1 
1 
1 
1 
1 
1 
1 
1 
1 
1 
1 
1 
1 
1 
1 
1 
1 
1 
1 
1 
1 
1 
1 
1 
1 
1 
1 
1 
1 
1 
1 
1 
1 
1 
1 
1 
1 
1 
1 
1 
1 
1 
1 
1 
1 
1 
1 
1 
1 
1 
1 
1 
1 
1 
1 
1 
1 
1 
1 
1 
1 
1 
1 
1 

VECTORS Displacement float
-0.000108486 0.000446471 0 
-5.44679e-05 0.000253961 0 
-0.000190922 0.000542808 0 
-5.44679e-05 0.000253961 0 
-6.68081e-05 0.000219926 0 
0.000995482 0.000147985 0 
0.000522144 -3.74816e-05 0 
0.000995482 0.000147985 0 
4.33793e-05 0.000633262 0 
-3.92842e-06 0.000226387 0 
0.000514205 0.00042875 0 
-3.92842e-06 0.000226387 0 
-0.000128584 0.000395912 0 
-0.000317956 0.000632811 0 
4.33793e-05 0.000633262 0 
-0.000317956 0.000632811 0 
-6.68081e-05 0.000219926 0 
0.000514205 0.00042875 0 
0.000995482 0.000147985 0 
0.000514205 0.00042875 0 
-0.000190922 0.000542808 0 
-0.000128584 0.000395912 0 
-0.000108486 0.000446471 0 
-0.000128584 0.000395912 0 
-0.000573488 0.000502286 0 
-0.000128584 0.000395912 0 
-0.000190922 0.000542808 0 
-0.000128584 0.000395912 0 
0.000995482 0.000147985 0 
0.000514205 0.00042875 0 
0.000186102 -0.000152943 0 
0.000514205 0.00042875 0 
0.000186102 -0.000152943 0 
-3.92842e-06 0.000226387 0 
0 0.000160777 0 
-3.92842e-06 0.000226387 0 
-2.1684e-19 0.000160777 0 
-0.000317956 0.000632811 0 
-0.000573488 0.000502286 0 
-0.000317956 0.000632811 0 
-0.000573488 0.000502286 0 
-0.000317956 0.000632811 0 
-0.000128584 0.000395912 0 
-0.000317956 0.000632811 0 
0.000514205 0.00042875 0 
-3.92842e-06 0.000226387 0 
0.000186102 -0.000152943 0 
-3.92842e-06 0.000226387 0 
-3.92842e-06 0.000226387 0 
-0.000317956 0.000632811 0 
-7.22801e-20 0.000160777 0 
-0.000317956 0.000632811 0 
4.33793e-05 0.000633262 0 
-0.000317956 0.000632811 0 
-3.92842e-06 0.000226387 0 
-0.000317956 0.000632811 0 
-6.68081e-05 0.000219926 0 
0.000522144 -3.74816e-05 0 
5.7705e-05 -0.000117545 0 
0.000522144 -3.74816e-05 0 
-0.000108486 0.000446471 0 
0.000117545 5.7705e-05 0 
-5.44679e-05 0.000253961 0 
0.000117545 5.7705e-05 0 
4.33793e-05 0.000633262 0 
0.000514205 0.00042875 0 
-6.68081e-05 0.000219926 0 
0.000514205 0.00042875 0 
-0.000108486 0.000446471 0 
-0.000128584 0.000395912 0 
4.33793e-05 0.000633262 0 
-0.000128584 0.000395912 0 
-0.000253961 -5.44679e-05 0 
-0.000542808 -0.000190922 0 
-0.000446471 -0.000108486 0 
-0.000542808 -0.000190922 0 
-0.000219926 -6.68081e-05 0 
-0.000147985 0.000995482 0 
3.74816e-05 0.000522144 0 
-0.000147985 0.000995482 0 
-0.000633262 4.33793e-05 0 
-0.000226387 -3.92842e-06 0 
-0.00042875 0.000514205 0 
-0.000226387 -3.92842e-06 0 
-0.000395912 -0.000128584 0 
-0.000632811 -0.000317956 0 
-0.000633262 4.33793e-05 0 
-0.000632811 -0.000317956 0 
-0.000219926 -6.68081e-05 0 
-0.00042875 0.000514205 0 
-0.000147985 0.000995482 0 
-0.00042875 0.000514205 0 
-0.000542808 -0.000190922 0 
-0.000395912 -0.000128584 0 
-0.000446471 -0.000108486 0 
-0.000395912 -0.000128584 0 
-0.000502286 -0.000573488 0 
-0.000395912 -0.000128584 0 
-0.000542808 -0.000190922 0 
-0.000395912 -0.000128584 0 
-0.000147985 0.000995482 0 
-0.00042875 0.000514205 0 
0.000152943 0.000186102 0 
-0.00042875 0.000514205 0 
0.000152943 0.000186102 0 
-0.000226387 -3.92842e-06 0 
-0.000160777 0 0 
-0.000226387 -3.92842e-06 0 
-0.000160777 -1.6263e-19 0 
-0.000632811 -0.000317956 0 
-0.000502286 -0.000573488 0 
-0.000632811 -0.000317956 0 
-0.000502286 -0.000573488 0 
-0.000632811 -0.000317956 0 
-0.000395912 -0.000128584 0 
-0.000632811 -0.000317956 0 
-0.00042875 0.000514205 0 
-0.000226387 -3.92842e-06 0 
0.000152943 0.000186102 0 
-0.000226387 -3.92842e-06 0 
-0.000226387 -3.92842e-06 0 
-0.000632811 -0.000317956 0 
-0.000160777 0 0 
-0.000632811 -0.000317956 0 
-0.000633262 4.33793e-05 0 
-0.000632811 -0.000317956 0 
-0.000226387 -3.92842e-06 0 
-0.000632811 -0.000317956 0 
-0.000219926 -6.68081e-05 0 
3.74816e-05 0.000522144 0 
0.000117545 5.7705e-05 0 
3.74816e-05 0.000522144 0 
-5.7705e-05 0.000117545 0 
-0.000253961 -5.44679e-05 0 
-0.000446471 -0.000108486 0 
-0.000253961 -5.44679e-05 0 
-0.000633262 4.33793e-05 0 
-0.00042875 0.000514205 0 
-0.000219926 -6.68081e-05 0 
-0.00042875 0.000514205 0 
-0.000446471 -0.000108486 0 
-0.000395912 -0.000128584 0 
-0.000633262 4.33793e-05 0 
-0.000395912 -0.000128584 0 
0.000190922 -0.000542808 0 
0.000108486 -0.000446471 0 
5.44679e-05 -0.000253961 0 
0.000108486 -0.000446471 0 
-0.000995482 -0.000147985 0 
-0.000522144 3.74816e-05 0 
6.68081e-05 -0.000219926 0 
-0.000522144 3.74816e-05 0 
-4.33793e-05 -0.000633262 0 
3.92842e-06 -0.000226387 0 
-0.000514205 -0.00042875 0 
3.92842e-06 -0.000226387 0 
0.000128584 -0.000395912 0 
0.000317956 -0.000632811 0 
-4.33793e-05 -0.000633262 0 
0.000317956 -0.000632811 0 
6.68081e-05 -0.000219926 0 
-0.000514205 -0.00042875 0 
-0.000995482 -0.000147985 0 
-0.000514205 -0.00042875 0 
0.000190922 -0.000542808 0 
0.000128584 -0.000395912 0 
0.000108486 -0.000446471 0 
0.000128584 -0.000395912 0 
0.000573488 -0.000502286 0 
0.000128584 -0.000395912 0 
0.000190922 -0.000542808 0 
0.000128584 -0.000395912 0 
-0.000995482 -0.000147985 0 
-0.000514205 -0.00042875 0 
-0.000186102 0.000152943 0 
-0.000514205 -0.00042875 0 
-0.000186102 0.000152943 0 
3.92842e-06 -0.000226387 0 
1.41172e-20 -0.000160777 0 
3.92842e-06 -0.000226387 0 
-5.42101e-20 -0.000160777 0 
0.000317956 -0.000632811 0 
0.000573488 -0.000502286 0 
0.000317956 -0.000632811 0 
0.000573488 -0.000502286 0 
0.000317956 -0.000632811 0 
0.000128584 -0.000395912 0 
0.000317956 -0.000632811 0 
-0.000514205 -0.00042875 0 
3.92842e-06 -0.000226387 0 
-0.000186102 0.000152943 0 
3.92842e-06 -0.000226387 0 
3.92842e-06 -0.000226387 0 
0.000317956 -0.000632811 0 
1.807e-20 -0.000160777 0 
0.000317956 -0.000632811 0 
-4.33793e-05 -0.000633262 0 
0.000317956 -0.000632811 0 
3.92842e-06 -0.000226387 0 
0.000317956 -0.000632811 0 
-0.000522144 3.74816e-05 0 
-5.7705e-05 0.000117545 0 
6.68081e-05 -0.000219926 0 
-5.7705e-05 0.000117545 0 
5.44679e-05 -0.000253961 0 
0.000108486 -0.000446471 0 
-0.000117545 -5.7705e-05 0 
0.000108486 -0.000446471 0 
-4.33793e-05 -0.000633262 0 
-0.000514205 -0.00042875 0 
6.68081e-05 -0.000219926 0 
-0.000514205 -0.00042875 0 
0.000108486 -0.000446471 0 
0.000128584 -0.000395912 0 
-4.33793e-05 -0.000633262 0 
0.000128584 -0.000395912 0 
0.000446471 0.000108486 0 
0.000253961 5.44679e-05 0 
0.000542808 0.000190922 0 
0.000253961 5.44679e-05 0 
-3.74816e-05 -0.000522144 0 
0.000219926 6.68081e-05 0 
0.000147985 -0.000995482 0 
0.000219926 6.68081e-05 0 
0.000633262 -4.33793e-05 0 
0.000226387 3.92842e-06 0 
0.00042875 -0.000514205 0 
0.000226387 3.92842e-06 0 
0.000395912 0.000128584 0 
0.000632811 0.000317956 0 
0.000633262 -4.33793e-05 0 
0.000632811 0.000317956 0 
0.000219926 6.68081e-05 0 
0.00042875 -0.000514205 0 
0.000147985 -0.000995482 0 
0.00042875 -0.000514205 0 
0.000542808 0.000190922 0 
0.000395912 0.000128584 0 
0.000446471 0.000108486 0 
0.000395912 0.000128584 0 
0.000502286 0.000573488 0 
0.000395912 0.000128584 0 
0.000542808 0.000190922 0 
0.000395912 0.000128584 0 
0.000147985 -0.000995482 0 
0.00042875 -0.000514205 0 
-0.000152943 -0.000186102 0 
0.00042875 -0.000514205 0 
-0.000152943 -0.000186102 0 
0.000226387 3.92842e-06 0 
0.000160777 6.83273e-20 0 
0.000226387 3.92842e-06 0 
0.000160777 5.42101e-20 0 
0.000632811 0.000317956 0 
0.000502286 0.000573488 0 
0.000632811 0.000317956 0 
0.000502286 0.000573488 0 
0.000632811 0.000317956 0 
0.000395912 0.000128584 0 
0.000632811 0.000317956 0 
0.00042875 -0.000514205 0 
0.000226387 3.92842e-06 0 
-0.000152943 -0.000186102 0 
0.000226387 3.92842e-06 0 
0.000226387 3.92842e-06 0 
0.000632811 0.000317956 0 
0.000160777 0 0 
0.000632811 0.000317956 0 
0.000633262 -4.33793e-05 0 
0.000632811 0.000317956 0 
0.000226387 3.92842e-06 0 
0.000632811 0.000317956 0 
0.000446471 0.000108486 0 
5.7705e-05 -0.000117545 0 
0.000253961 5.44679e-05 0 
5.7705e-05 -0.000117545 0 
-0.000117545 -5.7705e-05 0 
0.000219926 6.68081e-05 0 
-3.74816e-05 -0.000522144 0 
0.000219926 6.68081e-05 0 
0.000633262 -4.33793e-05 0 
0.00042875 -0.000514205 0 
0.000219926 6.68081e-05 0 
0.00042875 -0.000514205 0 
0.000446471 0.000108486 0 
0.000395912 0.000128584 0 
0.000633262 -4.33793e-05 0 
0.000395912 0.000128584 0 
0.00117213 0.00186354 0 
-0.000126468 0.00160738 0 
0.000577647 0.00086714 0 
-3.55326e-05 0.000886786 0 
-0.000126468 0.00160738 0 
-0.000623165 0.000950757 0 
-3.55326e-05 0.000886786 0 
-0.000568868 0.00081187 0 
-0.000623165 0.000950757 0 
-0.00111235 0.00125496 0 
-0.000568868 0.00081187 0 
-0.000791412 0.000833435 0 
-0.00111235 0.00125496 0 
-0.00186354 0.00117213 0 
-0.000791412 0.000833435 0 
-0.00086714 0.000577647 0 
0.000577647 0.00086714 0 
-3.55326e-05 0.000886786 0 
0.000233201 0.000457974 0 
-8.1197e-05 0.000447084 0 
-3.55326e-05 0.000886786 0 
-0.000568868 0.00081187 0 
-8.1197e-05 0.000447084 0 
-0.00020577 0.000480936 0 
-0.000568868 0.00081187 0 
-0.000791412 0.000833435 0 
-0.00020577 0.000480936 0 
-0.000401829 0.000666166 0 
-0.000791412 0.000833435 0 
-0.00086714 0.000577647 0 
-0.000401829 0.000666166 0 
-0.000457974 0.000233201 0 
0.000233201 0.000457974 0 
-8.1197e-05 0.000447084 0 
0.000131932 0.000103058 0 
-0.000163659 0.000294316 0 
-8.1197e-05 0.000447084 0 
-0.00020577 0.000480936 0 
-0.000163659 0.000294316 0 
-8.96389e-05 0.000559298 0 
-0.00020577 0.000480936 0 
-0.000401829 0.000666166 0 
-8.96389e-05 0.000559298 0 
-0.000157388 0.000540937 0 
-0.000401829 0.000666166 0 
-0.000457974 0.000233201 0 
-0.000157388 0.000540937 0 
-0.000103058 0.000131932 0 
0.000131932 0.000103058 0 
-0.000163659 0.000294316 0 
5.7705e-05 -0.000117545 0 
-6.68081e-05 0.000219926 0 
-0.000163659 0.000294316 0 
-8.96389e-05 0.000559298 0 
-6.68081e-05 0.000219926 0 
4.33793e-05 0.000633262 0 
-8.96389e-05 0.000559298 0 
-0.000157388 0.000540937 0 
4.33793e-05 0.000633262 0 
-0.000108486 0.000446471 0 
-0.000157388 0.000540937 0 
-0.000103058 0.000131932 0 
-0.000108486 0.000446471 0 
0.000117545 5.7705e-05 0 
-0.00186354 0.00117213 0 
-0.00160738 -0.000126468 0 
-0.00086714 0.000577647 0 
-0.000886786 -3.55326e-05 0 
-0.00160738 -0.000126468 0 
-0.000950757 -0.000623165 0 
-0.000886786 -3.55326e-05 0 
-0.00081187 -0.000568868 0 
-0.000950757 -0.000623165 0 
-0.00125496 -0.00111235 0 
-0.00081187 -0.000568868 0 
-0.000833435 -0.000791412 0 
-0.00125496 -0.00111235 0 
-0.00117213 -0.00186354 0 
-0.000833435 -0.000791412 0 
-0.000577647 -0.00086714 0 
-0.00086714 0.000577647 0 
-0.000886786 -3.55326e-05 0 
-0.000457974 0.000233201 0 
-0.000447084 -8.1197e-05 0 
-0.000886786 -3.55326e-05 0 
-0.00081187 -0.000568868 0 
-0.000447084 -8.1197e-05 0 
-0.000480936 -0.00020577 0 
-0.00081187 -0.000568868 0 
-0.000833435 -0.000791412 0 
-0.000480936 -0.00020577 0 
-0.000666166 -0.000401829 0 
-0.000833435 -0.000791412 0 
-0.000577647 -0.00086714 0 
-0.000666166 -0.000401829 0 
-0.000233201 -0.000457974 0 
-0.000457974 0.000233201 0 
-0.000447084 -8.1197e-05 0 
-0.000103058 0.000131932 0 
-0.000294316 -0.000163659 0 
-0.000447084 -8.1197e-05 0 
-0.000480936 -0.00020577 0 
-0.000294316 -0.000163659 0 
-0.000559298 -8.96389e-05 0 
-0.000480936 -0.00020577 0 
-0.000666166 -0.000401829 0 
-0.000559298 -8.96389e-05 0 
-0.000540937 -0.000157388 0 
-0.000666166 -0.000401829 0 
-0.000233201 -0.000457974 0 
-0.000540937 -0.000157388 0 
-0.000131932 -0.000103058 0 
-0.000103058 0.000131932 0 
-0.000294316 -0.000163659 0 
0.000117545 5.7705e-05 0 
-0.000219926 -6.68081e-05 0 
-0.000294316 -0.000163659 0 
-0.000559298 -8.96389e-05 0 
-0.000219926 -6.68081e-05 0 
-0.000633262 4.33793e-05 0 
-0.000559298 -8.96389e-05 0 
-0.000540937 -0.000157388 0 
-0.000633262 4.33793e-05 0 
-0.000446471 -0.000108486 0 
-0.000540937 -0.000157388 0 
-0.000131932 -0.000103058 0 
-0.000446471 -0.000108486 0 
-5.7705e-05 0.000117545 0 
-0.00117213 -0.00186354 0 
0.000126468 -0.00160738 0 
-0.000577647 -0.00086714 0 
3.55326e-05 -0.000886786 0 
0.000126468 -0.00160738 0 
0.000623165 -0.000950757 0 
3.55326e-05 -0.000886786 0 
0.000568868 -0.00081187 0 
0.000623165 -0.000950757 0 
0.00111235 -0.00125496 0 
0.000568868 -0.00081187 0 
0.000791412 -0.000833435 0 
0.00111235 -0.00125496 0 
0.00186354 -0.00117213 0 
0.000791412 -0.000833435 0 
0.00086714 -0.000577647 0 
-0.000577647 -0.00086714 0 
3.55326e-05 -0.000886786 0 
-0.000233201 -0.000457974 0 
8.1197e-05 -0.000447084 0 
3.55326e-05 -0.000886786 0 
0.000568868 -0.00081187 0 
8.1197e-05 -0.000447084 0 
0.00020577 -0.000480936 0 
0.000568868 -0.00081187 0 
0.000791412 -0.000833435 0 
0.00020577 -0.000480936 0 
0.000401829 -0.000666166 0 
0.000791412 -0.000833435 0 
0.00086714 -0.000577647 0 
0.000401829 -0.000666166 0 
0.000457974 -0.000233201 0 
-0.000233201 -0.000457974 0 
8.1197e-05 -0.000447084 0 
-0.000131932 -0.000103058 0 
0.000163659 -0.000294316 0 
8.1197e-05 -0.000447084 0 
0.00020577 -0.000480936 0 
0.000163659 -0.000294316 0 
8.96389e-05 -0.000559298 0 
0.00020577 -0.000480936 0 
0.000401829 -0.000666166 0 
8.96389e-05 -0.000559298 0 
0.000157388 -0.000540937 0 
0.000401829 -0.000666166 0 
0.000457974 -0.000233201 0 
0.000157388 -0.000540937 0 
0.000103058 -0.000131932 0 
-0.000131932 -0.000103058 0 
0.000163659 -0.000294316 0 
-5.7705e-05 0.000117545 0 
6.68081e-05 -0.000219926 0 
0.000163659 -0.000294316 0 
8.96389e-05 -0.000559298 0 
6.68081e-05 -0.000219926 0 
-4.33793e-05 -0.000633262 0 
8.96389e-05 -0.000559298 0 
0.000157388 -0.000540937 0 
-4.33793e-05 -0.000633262 0 
0.000108486 -0.000446471 0 
0.000157388 -0.000540937 0 
0.000103058 -0.000131932 0 
0.000108486 -0.000446471 0 
-0.000117545 -5.7705e-05 0 
0.00186354 -0.00117213 0 
0.00160738 0.000126468 0 
0.00086714 -0.000577647 0 
0.000886786 3.55326e-05 0 
0.00160738 0.000126468 0 
0.000950757 0.000623165 0 
0.000886786 3.55326e-05 0 
0.00081187 0.000568868 0 
0.000950757 0.000623165 0 
0.00125496 0.00111235 0 
0.00081187 0.000568868 0 
0.000833435 0.000791412 0 
0.00125496 0.00111235 0 
0.00117213 0.00186354 0 
0.000833435 0.000791412 0 
0.000577647 0.00086714 0 
0.00086714 -0.000577647 0 
0.000886786 3.55326e-05 0 
0.000457974 -0.000233201 0 
0.000447084 8.1197e-05 0 
0.000886786 3.55326e-05 0 
0.00081187 0.000568868 0 
0.000447084 8.1197e-05 0 
0.000480936 0.00020577 0 
0.00081187 0.000568868 0 
0.000833435 0.000791412 0 
0.000480936 0.00020577 0 
0.000666166 0.000401829 0 
0.000833435 0.000791412 0 
0.000577647 0.00086714 0 
0.000666166 0.000401829 0 
0.000233201 0.000457974 0 
0.000457974 -0.000233201 0 
0.000447084 8.1197e-05 0 
0.000103058 -0.000131932 0 
0.000294316 0.000163659 0 
0.000447084 8.1197e-05 0 
0.000480936 0.00020577 0 
0.000294316 0.000163659 0 
0.000559298 8.96389e-05 0 
0.000480936 0.00020577 0 
0.000666166 0.000401829 0 
0.000559298 8.96389e-05 0 
0.000540937 0.000157388 0 
0.000666166 0.000401829 0 
0.000233201 0.000457974 0 
0.000540937 0.000157388 0 
0.000131932 0.000103058 0 
0.000103058 -0.000131932 0 
0.000294316 0.000163659 0 
-0.000117545 -5.7705e-05 0 
0.000219926 6.68081e-05 0 
0.000294316 0.000163659 0 
0.000559298 8.96389e-05 0 
0.000219926 6.68081e-05 0 
0.000633262 -4.33793e-05 0 
0.000559298 8.96389e-05 0 
0.000540937 0.000157388 0 
0.000633262 -4.33793e-05 0 
0.000446471 0.000108486 0 
0.000540937 0.000157388 0 
0.000131932 0.000103058 0 
0.000446471 0.000108486 0 
5.7705e-05 -0.000117545 0 
0.00196598 -0.00356763 0 
0.00203854 -0.00472366 0 
0.00227211 -0.00390721 0 
0.00203854 -0.00472366 0 
0.00356763 0.00196598 0 
0.00472366 0.00203854 0 
0.00390721 0.00227211 0 
0.00472366 0.00203854 0 
-0.00196598 0.00356763 0 
-0.00203854 0.00472366 0 
-0.00227211 0.00390721 0 
-0.00203854 0.00472366 0 
-0.00356763 -0.00196598 0 
-0.00472366 -0.00203854 0 
-0.00390721 -0.00227211 0 
-0.00472366 -0.00203854 0 
0.000397612 -0.00300456 0 
0.00203854 -0.00472366 0 
0.00196598 -0.00356763 0 
0.00203854 -0.00472366 0 
-0.000397612 0.00300456 0 
-0.00203854 0.00472366 0 
-0.00196598 0.00356763 0 
-0.00203854 0.00472366 0 
-0.00300456 -0.000397612 0 
-0.00472366 -0.00203854 0 
-0.00356763 -0.00196598 0 
-0.00472366 -0.00203854 0 
0.00300456 0.000397612 0 
0.00472366 0.00203854 0 
0.00356763 0.00196598 0 
0.00472366 0.00203854 0 
0.00186378 0.00999125 0 
0.00405432 0.00563657 0 
0.00709206 0.010943 0 
0.00405432 0.00563657 0 
-0.00999125 0.00186378 0 
-0.00563657 0.00405432 0 
-0.010943 0.00709206 0 
-0.00563657 0.00405432 0 
-0.00186378 -0.00999125 0 
-0.00405432 -0.00563657 0 
-0.00709206 -0.010943 0 
-0.00405432 -0.00563657 0 
0.00999125 -0.00186378 0 
0.00563657 -0.00405432 0 
0.010943 -0.00709206 0 
0.00563657 -0.00405432 0 
-0.00660882 0.00882392 0 
0.00017175 0.00621978 0 
-0.00253675 0.0115218 0 
0.00017175 0.00621978 0 
-0.00882392 -0.00660882 0 
-0.00621978 0.00017175 0 
-0.0115218 -0.00253675 0 
-0.00621978 0.00017175 0 
0.00882392 0.00660882 0 
0.00621978 -0.00017175 0 
0.0115218 0.00253675 0 
0.00621978 -0.00017175 0 
0.00660882 -0.00882392 0 
-0.00017175 -0.00621978 0 
0.00253675 -0.0115218 0 
-0.00017175 -0.00621978 0 
0.000126468 -0.00160738 0 
-0.00130856 -0.00177514 0 
0.000623165 -0.000950757 0 
-0.00130856 -0.00177514 0 
-0.00160738 -0.000126468 0 
-0.00177514 0.00130856 0 
-0.000950757 -0.000623165 0 
-0.00177514 0.00130856 0 
-0.000126468 0.00160738 0 
0.00130856 0.00177514 0 
-0.000623165 0.000950757 0 
0.00130856 0.00177514 0 
0.00160738 0.000126468 0 
0.00177514 -0.00130856 0 
0.000950757 0.000623165 0 
0.00177514 -0.00130856 0 
0.00111235 -0.00125496 0 
-0.000188483 -0.00148642 0 
0.00196598 -0.00356763 0 
-0.000188483 -0.00148642 0 
-0.00125496 -0.00111235 0 
-0.00148642 0.000188483 0 
-0.00356763 -0.00196598 0 
-0.00148642 0.000188483 0 
-0.00111235 0.00125496 0 
0.000188483 0.00148642 0 
-0.00196598 0.00356763 0 
0.000188483 0.00148642 0 
0.00125496 0.00111235 0 
0.00148642 -0.000188483 0 
0.00356763 0.00196598 0 
0.00148642 -0.000188483 0 
-0.00390721 -0.00227211 0 
-0.00253797 -0.00530119 0 
-0.00130856 -0.00177514 0 
-0.00253797 -0.00530119 0 
0.00227211 -0.00390721 0 
0.00530119 -0.00253797 0 
0.00177514 -0.00130856 0 
0.00530119 -0.00253797 0 
-0.00227211 0.00390721 0 
-0.00530119 0.00253797 0 
-0.00177514 0.00130856 0 
-0.00530119 0.00253797 0 
0.00390721 0.00227211 0 
0.00253797 0.00530119 0 
0.00130856 0.00177514 0 
0.00253797 0.00530119 0 
-0.00130856 -0.00177514 0 
-0.00253797 -0.00530119 0 
0.000397612 -0.00300456 0 
-0.00253797 -0.00530119 0 
0.00177514 -0.00130856 0 
0.00530119 -0.00253797 0 
0.00300456 0.000397612 0 
0.00530119 -0.00253797 0 
0.00130856 0.00177514 0 
0.00253797 0.00530119 0 
-0.000397612 0.00300456 0 
0.00253797 0.00530119 0 
-0.00177514 0.00130856 0 
-0.00530119 0.00253797 0 
-0.00300456 -0.000397612 0 
-0.00530119 0.00253797 0 
0.000623165 -0.000950757 0 
-0.000188483 -0.00148642 0 
0.00111235 -0.00125496 0 
-0.000188483 -0.00148642 0 
-0.000950757 -0.000623165 0 
-0.00148642 0.000188483 0 
-0.00125496 -0.00111235 0 
-0.00148642 0.000188483 0 
0.000950757 0.000623165 0 
0.00148642 -0.000188483 0 
0.00125496 0.00111235 0 
0.00148642 -0.000188483 0 
-0.000623165 0.000950757 0 
0.000188483 0.00148642 0 
-0.00111235 0.00125496 0 
0.000188483 0.00148642 0 
-0.00356763 -0.00196598 0 
-0.00162716 -0.00242449 0 
-0.00125496 -0.00111235 0 
-0.00162716 -0.00242449 0 
0.00196598 -0.00356763 0 
0.00242449 -0.00162716 0 
0.00111235 -0.00125496 0 
0.00242449 -0.00162716 0 
0.00356763 0.00196598 0 
0.00162716 0.00242449 0 
0.00125496 0.00111235 0 
0.00162716 0.00242449 0 
-0.00196598 0.00356763 0 
-0.00242449 0.00162716 0 
-0.00111235 0.00125496 0 
-0.00242449 0.00162716 0 
-0.00390721 -0.00227211 0 
-0.00212076 -0.00223757 0 
-0.00356763 -0.00196598 0 
-0.00212076 -0.00223757 0 
0.00390721 0.00227211 0 
0.00212076 0.00223757 0 
0.00356763 0.00196598 0 
0.00212076 0.00223757 0 
-0.00227211 0.00390721 0 
-0.00223757 0.00212076 0 
-0.00196598 0.00356763 0 
-0.00223757 0.00212076 0 
0.00227211 -0.00390721 0 
0.00223757 -0.00212076 0 
0.00196598 -0.00356763 0 
0.00223757 -0.00212076 0 
0.00563657 -0.00405432 0 
0.00424475 -0.00711451 0 
0.010943 -0.00709206 0 
0.00424475 -0.00711451 0 
0.00405432 0.00563657 0 
0.00711451 0.00424475 0 
0.00709206 0.010943 0 
0.00711451 0.00424475 0 
-0.00563657 0.00405432 0 
-0.00424475 0.00711451 0 
-0.010943 0.00709206 0 
-0.00424475 0.00711451 0 
-0.00405432 -0.00563657 0 
-0.00711451 -0.00424475 0 
-0.00709206 -0.010943 0 
-0.00711451 -0.00424475 0 
-0.00999125 0.00186378 0 
-0.00754441 0.00224615 0 
-0.00563657 0.00405432 0 
-0.00754441 0.00224615 0 
0.00186378 0.00999125 0 
0.00224615 0.00754441 0 
0.00405432 0.00563657 0 
0.00224615 0.00754441 0 
-0.00186378 -0.00999125 0 
-0.00224615 -0.00754441 0 
-0.00405432 -0.00563657 0 
-0.00224615 -0.00754441 0 
0.00999125 -0.00186378 0 
0.00754441 -0.00224615 0 
0.00563657 -0.00405432 0 
0.00754441 -0.00224615 0 
0.00017175 0.00621978 0 
0.00224615 0.00754441 0 
-0.00253675 0.0115218 0 
0.00224615 0.00754441 0 
-0.00621978 0.00017175 0 
-0.00754441 0.00224615 0 
-0.0115218 -0.00253675 0 
-0.00754441 0.00224615 0 
0.00621978 -0.00017175 0 
0.00754441 -0.00224615 0 
0.0115218 0.00253675 0 
0.00754441 -0.00224615 0 
-0.00017175 -0.00621978 0 
-0.00224615 -0.00754441 0 
0.00253675 -0.0115218 0 
-0.00224615 -0.00754441 0 
-0.00660882 0.00882392 0 
-0.00424475 0.00711451 0 
0.00017175 0.00621978 0 
-0.00424475 0.00711451 0 
-0.00882392 -0.00660882 0 
-0.00711451 -0.00424475 0 
-0.00621978 0.00017175 0 
-0.00711451 -0.00424475 0 
0.00882392 0.00660882 0 
0.00711451 0.00424475 0 
0.00621978 -0.00017175 0 
0.00711451 0.00424475 0 
0.00660882 -0.00882392 0 
0.00424475 -0.00711451 0 
-0.00017175 -0.00621978 0 
0.00424475 -0.00711451 0 
-0.00253675 0.0115218 0 
0.00224615 0.00754441 0 
0.00186378 0.00999125 0 
0.00224615 0.00754441 0 
-0.0115218 -0.00253675 0 
-0.00754441 0.00224615 0 
-0.00999125 0.00186378 0 
-0.00754441 0.00224615 0 
0.0115218 0.00253675 0 
0.00754441 -0.00224615 0 
0.00999125 -0.00186378 0 
0.00754441 -0.00224615 0 
0.00253675 -0.0115218 0 
-0.00224615 -0.00754441 0 
-0.00186378 -0.00999125 0 
-0.00224615 -0.00754441 0 
0.00709206 0.010943 0 
0.00711451 0.00424475 0 
0.00882392 0.00660882 0 
0.00711451 0.00424475 0 
-0.010943 0.00709206 0 
-0.00424475 0.00711451 0 
-0.00660882 0.00882392 0 
-0.00424475 0.00711451 0 
-0.00709206 -0.010943 0 
-0.00711451 -0.00424475 0 
-0.00882392 -0.00660882 0 
-0.00711451 -0.00424475 0 
0.010943 -0.00709206 0 
0.00424475 -0.00711451 0 
0.00660882 -0.00882392 0 
0.00424475 -0.00711451 0 
-0.00196598 0.00356763 0 
0.000188483 0.00148642 0 
-0.000397612 0.00300456 0 
0.000188483 0.00148642 0 
0.00356763 0.00196598 0 
0.00148642 -0.000188483 0 
0.00300456 0.000397612 0 
0.00148642 -0.000188483 0 
-0.00356763 -0.00196598 0 
-0.00148642 0.000188483 0 
-0.00300456 -0.000397612 0 
-0.00148642 0.000188483 0 
0.00196598 -0.00356763 0 
-0.000188483 -0.00148642 0 
0.000397612 -0.00300456 0 
-0.000188483 -0.00148642 0 
-0.00130856 -0.00177514 0 
-0.000188483 -0.00148642 0 
0.000623165 -0.000950757 0 
-0.000188483 -0.00148642 0 
-0.00177514 0.00130856 0 
-0.00148642 0.000188483 0 
-0.000950757 -0.000623165 0 
-0.00148642 0.000188483 0 
0.00130856 0.00177514 0 
0.000188483 0.00148642 0 
-0.000623165 0.000950757 0 
0.000188483 0.00148642 0 
0.00177514 -0.00130856 0 
0.00148642 -0.000188483 0 
0.000950757 0.000623165 0 
0.00148642 -0.000188483 0 
-0.00117213 -0.00186354 0 
-0.00162716 -0.00242449 0 
0.000126468 -0.00160738 0 
-0.00162716 -0.00242449 0 
-0.00186354 0.00117213 0 
-0.00242449 0.00162716 0 
-0.00160738 -0.000126468 0 
-0.00242449 0.00162716 0 
0.00186354 -0.00117213 0 
0.00242449 -0.00162716 0 
0.00160738 0.000126468 0 
0.00242449 -0.00162716 0 
0.00117213 0.00186354 0 
0.00162716 0.00242449 0 
-0.000126468 0.00160738 0 
0.00162716 0.00242449 0 
-0.00160738 -0.000126468 0 
-0.00242449 0.00162716 0 
-0.00223757 0.00212076 0 
-0.00242449 0.00162716 0 
0.00160738 0.000126468 0 
0.00242449 -0.00162716 0 
0.00223757 -0.00212076 0 
0.00242449 -0.00162716 0 
-0.000126468 0.00160738 0 
0.00162716 0.00242449 0 
0.00212076 0.00223757 0 
0.00162716 0.00242449 0 
0.000126468 -0.00160738 0 
-0.00162716 -0.00242449 0 
-0.00212076 -0.00223757 0 
-0.00162716 -0.00242449 0 
-0.00111235 0.00125496 0 
-0.00242449 0.00162716 0 
-0.00186354 0.00117213 0 
-0.00242449 0.00162716 0 
-0.00125496 -0.00111235 0 
-0.00162716 -0.00242449 0 
-0.00117213 -0.00186354 0 
-0.00162716 -0.00242449 0 
0.00111235 -0.00125496 0 
0.00242449 -0.00162716 0 
0.00186354 -0.00117213 0 
0.00242449 -0.00162716 0 
0.00125496 0.00111235 0 
0.00162716 0.00242449 0 
0.00117213 0.00186354 0 
0.00162716 0.00242449 0 
-0.00130856 -0.00177514 0 
-0.00212076 -0.00223757 0 
-0.00390721 -0.00227211 0 
-0.00212076 -0.00223757 0 
0.00177514 -0.00130856 0 
0.00223757 -0.00212076 0 
0.00227211 -0.00390721 0 
0.00223757 -0.00212076 0 
0.00130856 0.00177514 0 
0.00212076 0.00223757 0 
0.00390721 0.00227211 0 
0.00212076 0.00223757 0 
-0.00177514 0.00130856 0 
-0.00223757 0.00212076 0 
-0.00227211 0.00390721 0 
-0.00223757 0.00212076 0 
-0.000397612 0.00300456 0 
0.000188483 0.00148642 0 
0.00130856 0.00177514 0 
0.000188483 0.00148642 0 
-0.00300456 -0.000397612 0 
-0.00148642 0.000188483 0 
-0.00177514 0.00130856 0 
-0.00148642 0.000188483 0 
0.00300456 0.000397612 0 
0.00148642 -0.000188483 0 
0.00177514 -0.00130856 0 
0.00148642 -0.000188483 0 
0.000397612 -0.00300456 0 
-0.000188483 -0.00148642 0 
-0.00130856 -0.00177514 0 
-0.000188483 -0.00148642 0 
0.00212076 0.00223757 0 
0.00162716 0.00242449 0 
0.00356763 0.00196598 0 
0.00162716 0.00242449 0 
-0.00212076 -0.00223757 0 
-0.00162716 -0.00242449 0 
-0.00356763 -0.00196598 0 
-0.00162716 -0.00242449 0 
0.00223757 -0.00212076 0 
0.00242449 -0.00162716 0 
0.00196598 -0.00356763 0 
0.00242449 -0.00162716 0 
-0.00223757 0.00212076 0 
-0.00242449 0.00162716 0 
-0.00196598 0.00356763 0 
-0.00242449 0.00162716 0 
-0.00390721 -0.00227211 0 
-0.00405432 -0.00563657 0 
-0.00253797 -0.00530119 0 
-0.00405432 -0.00563657 0 
0.00227211 -0.00390721 0 
0.00563657 -0.00405432 0 
0.00530119 -0.00253797 0 
0.00563657 -0.00405432 0 
-0.00227211 0.00390721 0 
-0.00563657 0.00405432 0 
-0.00530119 0.00253797 0 
-0.00563657 0.00405432 0 
0.00390721 0.00227211 0 
0.00405432 0.00563657 0 
0.00253797 0.00530119 0 
0.00405432 0.00563657 0 
-0.00472366 -0.00203854 0 
-0.00405432 -0.00563657 0 
-0.00390721 -0.00227211 0 
-0.00405432 -0.00563657 0 
0.00203854 -0.00472366 0 
0.00563657 -0.00405432 0 
0.00227211 -0.00390721 0 
0.00563657 -0.00405432 0 
-0.00203854 0.00472366 0 
-0.00563657 0.00405432 0 
-0.00227211 0.00390721 0 
-0.00563657 0.00405432 0 
0.00472366 0.00203854 0 
0.00405432 0.00563657 0 
0.00390721 0.00227211 0 
0.00405432 0.00563657 0 
0.00530119 -0.00253797 0 
0.00621978 -0.00017175 0 
0.00300456 0.000397612 0 
0.00621978 -0.00017175 0 
0.00253797 0.00530119 0 
0.00017175 0.00621978 0 
-0.000397612 0.00300456 0 
0.00017175 0.00621978 0 
-0.00530119 0.00253797 0 
-0.00621978 0.00017175 0 
-0.00300456 -0.000397612 0 
-0.00621978 0.00017175 0 
-0.00253797 -0.00530119 0 
-0.00017175 -0.00621978 0 
0.000397612 -0.00300456 0 
-0.00017175 -0.00621978 0 
-0.00300456 -0.000397612 0 
-0.00621978 0.00017175 0 
-0.00472366 -0.00203854 0 
-0.00621978 0.00017175 0 
0.00300456 0.000397612 0 
0.00621978 -0.00017175 0 
0.00472366 0.00203854 0 
0.00621978 -0.00017175 0 
-0.000397612 0.00300456 0 
0.00017175 0.00621978 0 
-0.00203854 0.00472366 0 
0.00017175 0.00621978 0 
0.000397612 -0.00300456 0 
-0.00017175 -0.00621978 0 
0.00203854 -0.00472366 0 
-0.00017175 -0.00621978 0 
0.00563657 -0.00405432 0 
0.00754441 -0.00224615 0 
0.00530119 -0.00253797 0 
0.00754441 -0.00224615 0 
0.00405432 0.00563657 0 
0.00224615 0.00754441 0 
0.00253797 0.00530119 0 
0.00224615 0.00754441 0 
-0.00563657 0.00405432 0 
-0.00754441 0.00224615 0 
-0.00530119 0.00253797 0 
-0.00754441 0.00224615 0 
-0.00405432 -0.00563657 0 
-0.00224615 -0.00754441 0 
-0.00253797 -0.00530119 0 
-0.00224615 -0.00754441 0 
-0.00253797 -0.00530119 0 
-0.00224615 -0.00754441 0 
-0.00017175 -0.00621978 0 
-0.00224615 -0.00754441 0 
-0.00530119 0.00253797 0 
-0.00754441 0.00224615 0 
-0.00621978 0.00017175 0 
-0.00754441 0.00224615 0 
0.00530119 -0.00253797 0 
0.00754441 -0.00224615 0 
0.00621978 -0.00017175 0 
0.00754441 -0.00224615 0 
0.00253797 0.00530119 0 
0.00224615 0.00754441 0 
0.00017175 0.00621978 0 
0.00224615 0.00754441 0 
-0.00472366 -0.00203854 0 
-0.00711451 -0.00424475 0 
-0.00405432 -0.00563657 0 
-0.00711451 -0.00424475 0 
-0.00203854 0.00472366 0 
-0.00424475 0.00711451 0 
-0.00563657 0.00405432 0 
-0.00424475 0.00711451 0 
0.00472366 0.00203854 0 
0.00711451 0.00424475 0 
0.00405432 0.00563657 0 
0.00711451 0.00424475 0 
0.00203854 -0.00472366 0 
0.00424475 -0.00711451 0 
0.00563657 -0.00405432 0 
0.00424475 -0.00711451 0 
0.00017175 0.00621978 0 
-0.00424475 0.00711451 0 
-0.00203854 0.00472366 0 
-0.00424475 0.00711451 0 
0.00621978 -0.00017175 0 
0.00711451 0.00424475 0 
0.00472366 0.00203854 0 
0.00711451 0.00424475 0 
-0.00017175 -0.00621978 0 
0.00424475 -0.00711451 0 
0.00203854 -0.00472366 0 
0.00424475 -0.00711451 0 
-0.00621978 0.00017175 0 
-0.00711451 -0.00424475 0 
-0.00472366 -0.00203854 0 
-0.00711451 -0.00424475 0 
-0.000126468 0.00160738 0 
0.00212076 0.00223757 0 
0.00130856 0.00177514 0 
0.00212076 0.00223757 0 
-0.00160738 -0.000126468 0 
-0.00223757 0.00212076 0 
-0.00177514 0.00130856 0 
-0.00223757 0.00212076 0 
0.000126468 -0.00160738 0 
-0.00212076 -0.00223757 0 
-0.00130856 -0.00177514 0 
-0.00212076 -0.00223757 0 
0.00160738 0.000126468 0 
0.00223757 -0.00212076 0 
0.00177514 -0.00130856 0 
0.00223757 -0.00212076 0 

TENSORS Stress float
0.0214921 0 0 0 0.0214921 0 0 0 0.0214921 
0.0214921 0 0 0 0.0214921 0 0 0 0.0214921 
0.0214921 0 0 0 0.0214921 0 0 0 0.0214921 
0.0214921 0 0 0 0.0214921 0 0 0 0.0214921 
-0.0793553 0 0 0 -0.0793553 0 0 0 -0.0793553 
-0.0793553 0 0 0 -0.0793553 0 0 0 -0.0793553 
-0.0793553 0 0 0 -0.0793553 0 0 0 -0.0793553 
-0.0793553 0 0 0 -0.0793553 0 0 0 -0.0793553 
0.100414 0 0 0 0.100414 0 0 0 0.100414 
0.100414 0 0 0 0.100414 0 0 0 0.100414 
0.100414 0 0 0 0.100414 0 0 0 0.100414 
0.100414 0 0 0 0.100414 0 0 0 0.100414 
0.00247488 2.27682e-18 0 2.27682e-18 0.00247488 0 0 0 0.00247488 
0.00247488 2.27682e-18 0 2.27682e-18 0.00247488 0 0 0 0.00247488 
0.00247488 2.27682e-18 0 2.27682e-18 0.00247488 0 0 0 0.00247488 
0.00247488 2.27682e-18 0 2.27682e-18 0.00247488 0 0 0 0.00247488 
0.0384025 0 0 0 0.0384025 0 0 0 0.0384025 
0.0384025 0 0 0 0.0384025 0 0 0 0.0384025 
0.0384025 0 0 0 0.0384025 0 0 0 0.0384025 
0.0384025 0 0 0 0.0384025 0 0 0 0.0384025 
0.148186 0 0 0 0.148186 0 0 0 0.148186 
0.148186 0 0 0 0.148186 0 0 0 0.148186 
0.148186 0 0 0 0.148186 0 0 0 0.148186 
0.148186 0 0 0 0.148186 0 0 0 0.148186 
-0.106811 0 0 0 -0.106811 0 0 0 -0.106811 
-0.106811 0 0 0 -0.106811 0 0 0 -0.106811 
-0.106811 0 0 0 -0.106811 0 0 0 -0.106811 
-0.106811 0 0 0 -0.106811 0 0 0 -0.106811 
-0.0207959 -7.37257e-18 0 -7.37257e-18 -0.0207959 0 0 0 -0.0207959 
-0.0207959 -7.37257e-18 0 -7.37257e-18 -0.0207959 0 0 0 -0.0207959 
-0.0207959 -7.37257e-18 0 -7.37257e-18 -0.0207959 0 0 0 -0.0207959 
-0.0207959 -7.37257e-18 0 -7.37257e-18 -0.0207959 0 0 0 -0.0207959 
-0.121131 0 0 0 -0.121131 0 0 0 -0.121131 
-0.121131 0 0 0 -0.121131 0 0 0 -0.121131 
-0.121131 0 0 0 -0.121131 0 0 0 -0.121131 
-0.121131 0 0 0 -0.121131 0 0 0 -0.121131 
-0.0666139 -6.93889e-18 0 -6.93889e-18 -0.0666139 0 0 0 -0.0666139 
-0.0666139 -6.93889e-18 0 -6.93889e-18 -0.0666139 0 0 0 -0.0666139 
-0.0666139 -6.93889e-18 0 -6.93889e-18 -0.0666139 0 0 0 -0.0666139 
-0.0666139 -6.93889e-18 0 -6.93889e-18 -0.0666139 0 0 0 -0.0666139 
0.0398307 0 0 0 0.0398307 0 0 0 0.0398307 
0.0398307 0 0 0 0.0398307 0 0 0 0.0398307 
0.0398307 0 0 0 0.0398307 0 0 0 0.0398307 
0.0398307 0 0 0 0.0398307 0 0 0 0.0398307 
-0.272916 8.67362e-19 0 8.67362e-19 -0.272916 0 0 0 -0.272916 
-0.272916 8.67362e-19 0 8.67362e-19 -0.272916 0 0 0 -0.272916 
-0.272916 8.67362e-19 0 8.67362e-19 -0.272916 0 0 0 -0.272916 
-0.272916 8.67362e-19 0 8.67362e-19 -0.272916 0 0 0 -0.272916 
0.0621317 3.46945e-18 0 3.46945e-18 0.0621317 0 0 0 0.0621317 
0.0621317 3.46945e-18 0 3.46945e-18 0.0621317 0 0 0 0.0621317 
0.0621317 3.46945e-18 0 3.46945e-18 0.0621317 0 0 0 0.0621317 
0.0621317 3.46945e-18 0 3.46945e-18 0.0621317 0 0 0 0.0621317 
0.29463 5.55112e-17 0 5.55112e-17 0.29463 0 0 0 0.29463 
0.29463 5.55112e-17 0 5.55112e-17 0.29463 0 0 0 0.29463 
0.29463 5.55112e-17 0 5.55112e-17 0.29463 0 0 0 0.29463 
0.29463 5.55112e-17 0 5.55112e-17 0.29463 0 0 0 0.29463 
-0.0464191 -1.73472e-17 0 -1.73472e-17 -0.0464191 0 0 0 -0.0464191 
-0.0464191 -1.73472e-17 0 -1.73472e-17 -0.0464191 0 0 0 -0.0464191 
-0.0464191 -1.73472e-17 0 -1.73472e-17 -0.0464191 0 0 0 -0.0464191 
-0.0464191 -1.73472e-17 0 -1.73472e-17 -0.0464191 0 0 0 -0.0464191 
-0.111412 -6.93889e-18 0 -6.93889e-18 -0.111412 0 0 0 -0.111412 
-0.111412 -6.93889e-18 0 -6.93889e-18 -0.111412 0 0 0 -0.111412 
-0.111412 -6.93889e-18 0 -6.93889e-18 -0.111412 0 0 0 -0.111412 
-0.111412 -6.93889e-18 0 -6.93889e-18 -0.111412 0 0 0 -0.111412 
0.0217251 -1.38778e-17 0 -1.38778e-17 0.0217251 0 0 0 0.0217251 
0.0217251 -1.38778e-17 0 -1.38778e-17 0.0217251 0 0 0 0.0217251 
0.0217251 -1.38778e-17 0 -1.38778e-17 0.0217251 0 0 0 0.0217251 
0.0217251 -1.38778e-17 0 -1.38778e-17 0.0217251 0 0 0 0.0217251 
-0.149969 -3.46945e-18 0 -3.46945e-18 -0.149969 0 0 0 -0.149969 
-0.149969 -3.46945e-18 0 -3.46945e-18 -0.149969 0 0 0 -0.149969 
-0.149969 -3.46945e-18 0 -3.46945e-18 -0.149969 0 0 0 -0.149969 
-0.149969 -3.46945e-18 0 -3.46945e-18 -0.149969 0 0 0 -0.149969 
0.0214921 8.67362e-18 0 8.67362e-18 0.0214921 0 0 0 0.0214921 
0.0214921 8.67362e-18 0 8.67362e-18 0.0214921 0 0 0 0.0214921 
0.0214921 8.67362e-18 0 8.67362e-18 0.0214921 0 0 0 0.0214921 
0.0214921 8.67362e-18 0 8.67362e-18 0.0214921 0 0 0 0.0214921 
-0.0793553 0 0 0 -0.0793553 0 0 0 -0.0793553 
-0.0793553 0 0 0 -0.0793553 0 0 0 -0.0793553 
-0.0793553 0 0 0 -0.0793553 0 0 0 -0.0793553 
-0.0793553 0 0 0 -0.0793553 0 0 0 -0.0793553 
0.100414 2.08167e-17 0 2.08167e-17 0.100414 0 0 0 0.100414 
0.100414 2.08167e-17 0 2.08167e-17 0.100414 0 0 0 0.100414 
0.100414 2.08167e-17 0 2.08167e-17 0.100414 0 0 0 0.100414 
0.100414 2.08167e-17 0 2.08167e-17 0.100414 0 0 0 0.100414 
0.00247488 -2.27682e-18 0 -2.27682e-18 0.00247488 0 0 0 0.00247488 
0.00247488 -2.27682e-18 0 -2.27682e-18 0.00247488 0 0 0 0.00247488 
0.00247488 -2.27682e-18 0 -2.27682e-18 0.00247488 0 0 0 0.00247488 
0.00247488 -2.27682e-18 0 -2.27682e-18 0.00247488 0 0 0 0.00247488 
0.0384025 -1.38778e-17 0 -1.38778e-17 0.0384025 0 0 0 0.0384025 
0.0384025 -1.38778e-17 0 -1.38778e-17 0.0384025 0 0 0 0.0384025 
0.0384025 -1.38778e-17 0 -1.38778e-17 0.0384025 0 0 0 0.0384025 
0.0384025 -1.38778e-17 0 -1.38778e-17 0.0384025 0 0 0 0.0384025 
0.148186 0 0 0 0.148186 0 0 0 0.148186 
0.148186 0 0 0 0.148186 0 0 0 0.148186 
0.148186 0 0 0 0.148186 0 0 0 0.148186 
0.148186 0 0 0 0.148186 0 0 0 0.148186 
-0.106811 2.08167e-17 0 2.08167e-17 -0.106811 0 0 0 -0.106811 
-0.106811 2.08167e-17 0 2.08167e-17 -0.106811 0 0 0 -0.106811 
-0.106811 2.08167e-17 0 2.08167e-17 -0.106811 0 0 0 -0.106811 
-0.106811 2.08167e-17 0 2.08167e-17 -0.106811 0 0 0 -0.106811 
-0.0207959 4.77049e-18 0 4.77049e-18 -0.0207959 0 0 0 -0.0207959 
-0.0207959 4.77049e-18 0 4.77049e-18 -0.0207959 0 0 0 -0.0207959 
-0.0207959 4.77049e-18 0 4.77049e-18 -0.0207959 0 0 0 -0.0207959 
-0.0207959 4.77049e-18 0 4.77049e-18 -0.0207959 0 0 0 -0.0207959 
-0.121131 -8.67362e-19 0 -8.67362e-19 -0.121131 0 0 0 -0.121131 
-0.121131 -8.67362e-19 0 -8.67362e-19 -0.121131 0 0 0 -0.121131 
-0.121131 -8.67362e-19 0 -8.67362e-19 -0.121131 0 0 0 -0.121131 
-0.121131 -8.67362e-19 0 -8.67362e-19 -0.121131 0 0 0 -0.121131 
-0.0666139 6.93889e-18 0 6.93889e-18 -0.0666139 0 0 0 -0.0666139 
-0.0666139 6.93889e-18 0 6.93889e-18 -0.0666139 0 0 0 -0.0666139 
-0.0666139 6.93889e-18 0 6.93889e-18 -0.0666139 0 0 0 -0.0666139 
-0.0666139 6.93889e-18 0 6.93889e-18 -0.0666139 0 0 0 -0.0666139 
0.0398307 0 0 0 0.0398307 0 0 0 0.0398307 
0.0398307 0 0 0 0.0398307 0 0 0 0.0398307 
0.0398307 0 0 0 0.0398307 0 0 0 0.0398307 
0.0398307 0 0 0 0.0398307 0 0 0 0.0398307 
-0.272916 -8.67362e-19 0 -8.67362e-19 -0.272916 0 0 0 -0.272916 
-0.272916 -8.67362e-19 0 -8.67362e-19 -0.272916 0 0 0 -0.272916 
-0.272916 -8.67362e-19 0 -8.67362e-19 -0.272916 0 0 0 -0.272916 
-0.272916 -8.67362e-19 0 -8.67362e-19 -0.272916 0 0 0 -0.272916 
0.0621317 -3.46945e-18 0 -3.46945e-18 0.0621317 0 0 0 0.0621317 
0.0621317 -3.46945e-18 0 -3.46945e-18 0.0621317 0 0 0 0.0621317 
0.0621317 -3.46945e-18 0 -3.46945e-18 0.0621317 0 0 0 0.0621317 
0.0621317 -3.46945e-18 0 -3.46945e-18 0.0621317 0 0 0 0.0621317 
0.29463 0 0 0 0.29463 0 0 0 0.29463 
0.29463 0 0 0 0.29463 0 0 0 0.29463 
0.29463 0 0 0 0.29463 0 0 0 0.29463 
0.29463 0 0 0 0.29463 0 0 0 0.29463 
-0.0464191 8.67362e-18 0 8.67362e-18 -0.0464191 0 0 0 -0.0464191 
-0.0464191 8.67362e-18 0 8.67362e-18 -0.0464191 0 0 0 -0.0464191 
-0.0464191 8.67362e-18 0 8.67362e-18 -0.0464191 0 0 0 -0.0464191 
-0.0464191 8.67362e-18 0 8.67362e-18 -0.0464191 0 0 0 -0.0464191 
-0.111412 -6.93889e-18 0 -6.93889e-18 -0.111412 0 0 0 -0.111412 
-0.111412 -6.93889e-18 0 -6.93889e-18 -0.111412 0 0 0 -0.111412 
-0.111412 -6.93889e-18 0 -6.93889e-18 -0.111412 0 0 0 -0.111412 
-0.111412 -6.93889e-18 0 -6.93889e-18 -0.111412 0 0 0 -0.111412 
0.0217251 -1.38778e-17 0 -1.38778e-17 0.0217251 0 0 0 0.0217251 
0.0217251 -1.38778e-17 0 -1.38778e-17 0.0217251 0 0 0 0.0217251 
0.0217251 -1.38778e-17 0 -1.38778e-17 0.0217251 0 0 0 0.0217251 
0.0217251 -1.38778e-17 0 -1.38778e-17 0.0217251 0 0 0 0.0217251 
-0.149969 -3.46945e-18 0 -3.46945e-18 -0.149969 0 0 0 -0.149969 
-0.149969 -3.46945e-18 0 -3.46945e-18 -0.149969 0 0 0 -0.149969 
-0.149969 -3.46945e-18 0 -3.46945e-18 -0.149969 0 0 0 -0.149969 
-0.149969 -3.46945e-18 0 -3.46945e-18 -0.149969 0 0 0 -0.149969 
0.0214921 0 0 0 0.0214921 0 0 0 0.0214921 
0.0214921 0 0 0 0.0214921 0 0 0 0.0214921 
0.0214921 0 0 0 0.0214921 0 0 0 0.0214921 
0.0214921 0 0 0 0.0214921 0 0 0 0.0214921 
-0.0793553 -6.93889e-18 0 -6.93889e-18 -0.0793553 0 0 0 -0.0793553 
-0.0793553 -6.93889e-18 0 -6.93889e-18 -0.0793553 0 0 0 -0.0793553 
-0.0793553 -6.93889e-18 0 -6.93889e-18 -0.0793553 0 0 0 -0.0793553 
-0.0793553 -6.93889e-18 0 -6.93889e-18 -0.0793553 0 0 0 -0.0793553 
0.100414 -1.38778e-17 0 -1.38778e-17 0.100414 0 0 0 0.100414 
0.100414 -1.38778e-17 0 -1.38778e-17 0.100414 0 0 0 0.100414 
0.100414 -1.38778e-17 0 -1.38778e-17 0.100414 0 0 0 0.100414 
0.100414 -1.38778e-17 0 -1.38778e-17 0.100414 0 0 0 0.100414 
0.00247488 -2.27682e-18 0 -2.27682e-18 0.00247488 0 0 0 0.00247488 
0.00247488 -2.27682e-18 0 -2.27682e-18 0.00247488 0 0 0 0.00247488 
0.00247488 -2.27682e-18 0 -2.27682e-18 0.00247488 0 0 0 0.00247488 
0.00247488 -2.27682e-18 0 -2.27682e-18 0.00247488 0 0 0 0.00247488 
0.0384025 -1.38778e-17 0 -1.38778e-17 0.0384025 0 0 0 0.0384025 
0.0384025 -1.38778e-17 0 -1.38778e-17 0.0384025 0 0 0 0.0384025 
0.0384025 -1.38778e-17 0 -1.38778e-17 0.0384025 0 0 0 0.0384025 
0.0384025 -1.38778e-17 0 -1.38778e-17 0.0384025 0 0 0 0.0384025 
0.148186 -1.38778e-17 0 -1.38778e-17 0.148186 0 0 0 0.148186 
0.148186 -1.38778e-17 0 -1.38778e-17 0.148186 0 0 0 0.148186 
0.148186 -1.38778e-17 0 -1.38778e-17 0.148186 0 0 0 0.148186 
0.148186 -1.38778e-17 0 -1.38778e-17 0.148186 0 0 0 0.148186 
-0.106811 -6.93889e-18 0 -6.93889e-18 -0.106811 0 0 0 -0.106811 
-0.106811 -6.93889e-18 0 -6.93889e-18 -0.106811 0 0 0 -0.106811 
-0.106811 -6.93889e-18 0 -6.93889e-18 -0.106811 0 0 0 -0.106811 
-0.106811 -6.93889e-18 0 -6.93889e-18 -0.106811 0 0 0 -0.106811 
-0.0207959 2.60209e-18 0 2.60209e-18 -0.0207959 0 0 0 -0.0207959 
-0.0207959 2.60209e-18 0 2.60209e-18 -0.0207959 0 0 0 -0.0207959 
-0.0207959 2.60209e-18 0 2.60209e-18 -0.0207959 0 0 0 -0.0207959 
-0.0207959 2.60209e-18 0 2.60209e-18 -0.0207959 0 0 0 -0.0207959 
-0.121131 8.67362e-19 0 8.67362e-19 -0.121131 0 0 0 -0.121131 
-0.121131 8.67362e-19 0 8.67362e-19 -0.121131 0 0 0 -0.121131 
-0.121131 8.67362e-19 0 8.67362e-19 -0.121131 0 0 0 -0.121131 
-0.121131 8.67362e-19 0 8.67362e-19 -0.121131 0 0 0 -0.121131 
-0.0666139 -6.93889e-18 0 -6.93889e-18 -0.0666139 0 0 0 -0.0666139 
-0.0666139 -6.93889e-18 0 -6.93889e-18 -0.0666139 0 0 0 -0.0666139 
-0.0666139 -6.93889e-18 0 -6.93889e-18 -0.0666139 0 0 0 -0.0666139 
-0.0666139 -6.93889e-18 0 -6.93889e-18 -0.0666139 0 0 0 -0.0666139 
0.0398307 -8.67362e-19 0 -8.67362e-19 0.0398307 0 0 0 0.0398307 
0.0398307 -8.67362e-19 0 -8.67362e-19 0.0398307 0 0 0 0.0398307 
0.0398307 -8.67362e-19 0 -8.67362e-19 0.0398307 0 0 0 0.0398307 
0.0398307 -8.67362e-19 0 -8.67362e-19 0.0398307 0 0 0 0.0398307 
-0.272916 -8.67362e-19 0 -8.67362e-19 -0.272916 0 0 0 -0.272916 
-0.272916 -8.67362e-19 0 -8.67362e-19 -0.272916 0 0 0 -0.272916 
-0.272916 -8.67362e-19 0 -8.67362e-19 -0.272916 0 0 0 -0.272916 
-0.272916 -8.67362e-19 0 -8.67362e-19 -0.272916 0 0 0 -0.272916 
0.0621317 3.46945e-18 0 3.46945e-18 0.0621317 0 0 0 0.0621317 
0.0621317 3.46945e-18 0 3.46945e-18 0.0621317 0 0 0 0.0621317 
0.0621317 3.46945e-18 0 3.46945e-18 0.0621317 0 0 0 0.0621317 
0.0621317 3.46945e-18 0 3.46945e-18 0.0621317 0 0 0 0.0621317 
0.29463 0 0 0 0.29463 0 0 0 0.29463 
0.29463 0 0 0 0.29463 0 0 0 0.29463 
0.29463 0 0 0 0.29463 0 0 0 0.29463 
0.29463 0 0 0 0.29463 0 0 0 0.29463 
-0.0464191 0 0 0 -0.0464191 0 0 0 -0.0464191 
-0.0464191 0 0 0 -0.0464191 0 0 0 -0.0464191 
-0.0464191 0 0 0 -0.0464191 0 0 0 -0.0464191 
-0.0464191 0 0 0 -0.0464191 0 0 0 -0.0464191 
-0.111412 2.08167e-17 0 2.08167e-17 -0.111412 0 0 0 -0.111412 
-0.111412 2.08167e-17 0 2.08167e-17 -0.111412 0 0 0 -0.111412 
-0.111412 2.08167e-17 0 2.08167e-17 -0.111412 0 0 0 -0.111412 
-0.111412 2.08167e-17 0 2.08167e-17 -0.111412 0 0 0 -0.111412 
0.0217251 -1.38778e-17 0 -1.38778e-17 0.0217251 0 0 0 0.0217251 
0.0217251 -1.38778e-17 0 -1.38778e-17 0.0217251 0 0 0 0.0217251 
0.0217251 -1.38778e-17 0 -1.38778e-17 0.0217251 0 0 0 0.0217251 
0.0217251 -1.38778e-17 0 -1.38778e-17 0.0217251 0 0 0 0.0217251 
-0.149969 0 0 0 -0.149969 0 0 0 -0.149969 
-0.149969 0 0 0 -0.149969 0 0 0 -0.149969 
-0.149969 0 0 0 -0.149969 0 0 0 -0.149969 
-0.149969 0 0 0 -0.149969 0 0 0 -0.149969 
0.0214921 0 0 0 0.0214921 0 0 0 0.0214921 
0.0214921 0 0 0 0.0214921 0 0 0 0.0214921 
0.0214921 0 0 0 0.0214921 0 0 0 0.0214921 
0.0214921 0 0 0 0.0214921 0 0 0 0.0214921 
-0.0793553 0 0 0 -0.0793553 0 0 0 -0.0793553 
-0.0793553 0 0 0 -0.0793553 0 0 0 -0.0793553 
-0.0793553 0 0 0 -0.0793553 0 0 0 -0.0793553 
-0.0793553 0 0 0 -0.0793553 0 0 0 -0.0793553 
0.100414 -2.08167e-17 0 -2.08167e-17 0.100414 0 0 0 0.100414 
0.100414 -2.08167e-17 0 -2.08167e-17 0.100414 0 0 0 0.100414 
0.100414 -2.08167e-17 0 -2.08167e-17 0.100414 0 0 0 0.100414 
0.100414 -2.08167e-17 0 -2.08167e-17 0.100414 0 0 0 0.100414 
0.00247488 0 0 0 0.00247488 0 0 0 0.00247488 
0.00247488 0 0 0 0.00247488 0 0 0 0.00247488 
0.00247488 0 0 0 0.00247488 0 0 0 0.00247488 
0.00247488 0 0 0 0.00247488 0 0 0 0.00247488 
0.0384025 -1.38778e-17 0 -1.38778e-17 0.0384025 0 0 0 0.0384025 
0.0384025 -1.38778e-17 0 -1.38778e-17 0.0384025 0 0 0 0.0384025 
0.0384025 -1.38778e-17 0 -1.38778e-17 0.0384025 0 0 0 0.0384025 
0.0384025 -1.38778e-17 0 -1.38778e-17 0.0384025 0 0 0 0.0384025 
0.148186 1.38778e-17 0 1.38778e-17 0.148186 0 0 0 0.148186 
0.148186 1.38778e-17 0 1.38778e-17 0.148186 0 0 0 0.148186 
0.148186 1.38778e-17 0 1.38778e-17 0.148186 0 0 0 0.148186 
0.148186 1.38778e-17 0 1.38778e-17 0.148186 0 0 0 0.148186 
-0.106811 -1.38778e-17 0 -1.38778e-17 -0.106811 0 0 0 -0.106811 
-0.106811 -1.38778e-17 0 -1.38778e-17 -0.106811 0 0 0 -0.106811 
-0.106811 -1.38778e-17 0 -1.38778e-17 -0.106811 0 0 0 -0.106811 
-0.106811 -1.38778e-17 0 -1.38778e-17 -0.106811 0 0 0 -0.106811 
-0.0207959 2.38524e-18 0 2.38524e-18 -0.0207959 0 0 0 -0.0207959 
-0.0207959 2.38524e-18 0 2.38524e-18 -0.0207959 0 0 0 -0.0207959 
-0.0207959 2.38524e-18 0 2.38524e-18 -0.0207959 0 0 0 -0.0207959 
-0.0207959 2.38524e-18 0 2.38524e-18 -0.0207959 0 0 0 -0.0207959 
-0.121131 4.33681e-19 0 4.33681e-19 -0.121131 0 0 0 -0.121131 
-0.121131 4.33681e-19 0 4.33681e-19 -0.121131 0 0 0 -0.121131 
-0.121131 4.33681e-19 0 4.33681e-19 -0.121131 0 0 0 -0.121131 
-0.121131 4.33681e-19 0 4.33681e-19 -0.121131 0 0 0 -0.121131 
-0.0666139 -1.38778e-17 0 -1.38778e-17 -0.0666139 0 0 0 -0.0666139 
-0.0666139 -1.38778e-17 0 -1.38778e-17 -0.0666139 0 0 0 -0.0666139 
-0.0666139 -1.38778e-17 0 -1.38778e-17 -0.0666139 0 0 0 -0.0666139 
-0.0666139 -1.38778e-17 0 -1.38778e-17 -0.0666139 0 0 0 -0.0666139 
0.0398307 0 0 0 0.0398307 0 0 0 0.0398307 
0.0398307 0 0 0 0.0398307 0 0 0 0.0398307 
0.0398307 0 0 0 0.0398307 0 0 0 0.0398307 
0.0398307 0 0 0 0.0398307 0 0 0 0.0398307 
-0.272916 -1.73472e-18 0 -1.73472e-18 -0.272916 0 0 0 -0.272916 
-0.272916 -1.73472e-18 0 -1.73472e-18 -0.272916 0 0 0 -0.272916 
-0.272916 -1.73472e-18 0 -1.73472e-18 -0.272916 0 0 0 -0.272916 
-0.272916 -1.73472e-18 0 -1.73472e-18 -0.272916 0 0 0 -0.272916 
0.0621317 -1.73472e-17 0 -1.73472e-17 0.0621317 0 0 0 0.0621317 
0.0621317 -1.73472e-17 0 -1.73472e-17 0.0621317 0 0 0 0.0621317 
0.0621317 -1.73472e-17 0 -1.73472e-17 0.0621317 0 0 0 0.0621317 
0.0621317 -1.73472e-17 0 -1.73472e-17 0.0621317 0 0 0 0.0621317 
0.29463 0 0 0 0.29463 0 0 0 0.29463 
0.29463 0 0 0 0.29463 0 0 0 0.29463 
0.29463 0 0 0 0.29463 0 0 0 0.29463 
0.29463 0 0 0 0.29463 0 0 0 0.29463 
-0.111412 3.46945e-17 0 3.46945e-17 -0.111412 0 0 0 -0.111412 
-0.111412 3.46945e-17 0 3.46945e-17 -0.111412 0 0 0 -0.111412 
-0.111412 3.46945e-17 0 3.46945e-17 -0.111412 0 0 0 -0.111412 
-0.111412 3.46945e-17 0 3.46945e-17 -0.111412 0 0 0 -0.111412 
-0.0464191 8.67362e-18 0 8.67362e-18 -0.0464191 0 0 0 -0.0464191 
-0.0464191 8.67362e-18 0 8.67362e-18 -0.0464191 0 0 0 -0.0464191 
-0.0464191 8.67362e-18 0 8.67362e-18 -0.0464191 0 0 0 -0.0464191 
-0.0464191 8.67362e-18 0 8.67362e-18 -0.0464191 0 0 0 -0.0464191 
0.0217251 0 0 0 0.0217251 0 0 0 0.0217251 
0.0217251 0 0 0 0.0217251 0 0 0 0.0217251 
0.0217251 0 0 0 0.0217251 0 0 0 0.0217251 
0.0217251 0 0 0 0.0217251 0 0 0 0.0217251 
-0.149969 0 0 0 -0.149969 0 0 0 -0.149969 
-0.149969 0 0 0 -0.149969 0 0 0 -0.149969 
-0.149969 0 0 0 -0.149969 0 0 0 -0.149969 
-0.149969 0 0 0 -0.149969 0 0 0 -0.149969 
1.49263 -4.83065e-17 0 -4.83065e-17 1.49263 0 0 0 1.49263 
2.44603 1.80282e-16 0 1.80282e-16 2.44603 0 0 0 2.44603 
-0.969479 -1.2014e-17 0 -1.2014e-17 -0.969479 0 0 0 -0.969479 
-0.475104 4.4837e-17 0 4.4837e-17 -0.475104 0 0 0 -0.475104 
-0.766185 -3.13496e-17 0 -3.13496e-17 -0.766185 0 0 0 -0.766185 
1.44519 2.12815e-17 0 2.12815e-17 1.44519 0 0 0 1.44519 
-0.460297 2.72908e-17 0 2.72908e-17 -0.460297 0 0 0 -0.460297 
0.686379 -5.53866e-17 0 -5.53866e-17 0.686379 0 0 0 0.686379 
1.3354 -8.67362e-18 0 -8.67362e-18 1.3354 0 0 0 1.3354 
0.286513 8.33335e-18 0 8.33335e-18 0.286513 0 0 0 0.286513 
0.0470088 2.63611e-17 0 2.63611e-17 0.0470088 0 0 0 0.0470088 
-0.496874 -8.67362e-18 0 -8.67362e-18 -0.496874 0 0 0 -0.496874 
1.72842 1.95027e-16 0 1.95027e-16 1.72842 0 0 0 1.72842 
1.55012 -5.22574e-17 0 -5.22574e-17 1.55012 0 0 0 1.55012 
-0.63967 -1.01926e-17 0 -1.01926e-17 -0.63967 0 0 0 -0.63967 
-0.732122 2.7311e-18 0 2.7311e-18 -0.732122 0 0 0 -0.732122 
0.335011 -1.73472e-18 0 -1.73472e-18 0.335011 0 0 0 0.335011 
0.257271 6.47408e-18 0 6.47408e-18 0.257271 0 0 0 0.257271 
-0.465988 4.64818e-19 0 4.64818e-19 -0.465988 0 0 0 -0.465988 
-0.518463 -1.73472e-18 0 -1.73472e-18 -0.518463 0 0 0 -0.518463 
0.0152444 3.59399e-18 0 3.59399e-18 0.0152444 0 0 0 0.0152444 
0.296771 -1.3413e-17 0 -1.3413e-17 0.296771 0 0 0 0.296771 
-0.734114 -7.40371e-18 0 -7.40371e-18 -0.734114 0 0 0 -0.734114 
-0.544081 2.7631e-17 0 2.7631e-17 -0.544081 0 0 0 -0.544081 
-0.246178 2.14972e-17 0 2.14972e-17 -0.246178 0 0 0 -0.246178 
0.0517642 -2.53981e-18 0 -2.53981e-18 0.0517642 0 0 0 0.0517642 
-0.415009 9.47871e-18 0 9.47871e-18 -0.415009 0 0 0 -0.415009 
-0.213896 -1.45583e-17 0 -1.45583e-17 -0.213896 0 0 0 -0.213896 
0.0545059 3.99898e-17 0 3.99898e-17 0.0545059 0 0 0 0.0545059 
-0.0505026 -5.07962e-18 0 -5.07962e-18 -0.0505026 0 0 0 -0.0505026 
0.0178281 1.89574e-17 0 1.89574e-17 0.0178281 0 0 0 0.0178281 
-0.0530535 -2.6112e-17 0 -2.6112e-17 -0.0530535 0 0 0 -0.0530535 
-0.309972 3.1065e-17 0 3.1065e-17 -0.309972 0 0 0 -0.309972 
0.0948776 -2.19179e-18 0 -2.19179e-18 0.0948776 0 0 0 0.0948776 
-0.228187 -2.63227e-17 0 -2.63227e-17 -0.228187 0 0 0 -0.228187 
0.0773616 -1.55067e-17 0 -1.55067e-17 0.0773616 0 0 0 0.0773616 
-0.128001 2.98306e-17 0 2.98306e-17 -0.128001 0 0 0 -0.128001 
0.305274 -2.16218e-17 0 -2.16218e-17 0.305274 0 0 0 0.305274 
-0.252571 -9.60325e-18 0 -9.60325e-18 -0.252571 0 0 0 -0.252571 
0.0744311 1.18028e-17 0 1.18028e-17 0.0744311 0 0 0 0.0744311 
0.400406 -1.04638e-16 0 -1.04638e-16 0.400406 0 0 0 0.400406 
-0.118806 3.16857e-17 0 3.16857e-17 -0.118806 0 0 0 -0.118806 
0.214993 2.64276e-17 0 2.64276e-17 0.214993 0 0 0 0.214993 
-0.176868 -2.48089e-18 0 -2.48089e-18 -0.176868 0 0 0 -0.176868 
0.0926222 -2.17463e-17 0 -2.17463e-17 0.0926222 0 0 0 0.0926222 
0.41674 1.01975e-16 0 1.01975e-16 0.41674 0 0 0 0.41674 
-0.111165 2.98639e-17 0 2.98639e-17 -0.111165 0 0 0 -0.111165 
0.133454 -3.37648e-17 0 -3.37648e-17 0.133454 0 0 0 0.133454 
0.0317486 3.26762e-18 0 3.26762e-18 0.0317486 0 0 0 0.0317486 
0.228218 2.3448e-18 0 2.3448e-18 0.228218 0 0 0 0.228218 
-0.0807013 1.02319e-17 0 1.02319e-17 -0.0807013 0 0 0 -0.0807013 
0.0770704 -1.47602e-17 0 -1.47602e-17 0.0770704 0 0 0 0.0770704 
-0.0904045 -3.9525e-17 0 -3.9525e-17 -0.0904045 0 0 0 -0.0904045 
0.0745225 -7.86853e-18 0 -7.86853e-18 0.0745225 0 0 0 0.0745225 
-0.0719577 -1.9887e-17 0 -1.9887e-17 -0.0719577 0 0 0 -0.0719577 
0.0604841 3.25861e-17 0 3.25861e-17 0.0604841 0 0 0 0.0604841 
0.215951 2.58963e-17 0 2.58963e-17 0.215951 0 0 0 0.215951 
-0.108377 -6.93889e-18 0 -6.93889e-18 -0.108377 0 0 0 -0.108377 
0.26856 -6.93889e-18 0 -6.93889e-18 0.26856 0 0 0 0.26856 
0.00811348 1.85927e-18 0 1.85927e-18 0.00811348 0 0 0 0.00811348 
-0.0484457 -1.73472e-18 0 -1.73472e-18 -0.0484457 0 0 0 -0.0484457 
0.19008 6.47408e-18 0 6.47408e-18 0.19008 0 0 0 0.19008 
-0.218866 4.64818e-19 0 4.64818e-19 -0.218866 0 0 0 -0.218866 
-0.0273211 -1.73472e-18 0 -1.73472e-18 -0.0273211 0 0 0 -0.0273211 
1.49263 2.0717e-16 0 2.0717e-16 1.49263 0 0 0 1.49263 
2.44603 -5.55112e-17 0 -5.55112e-17 2.44603 0 0 0 2.44603 
-0.969479 -5.55112e-17 0 -5.55112e-17 -0.969479 0 0 0 -0.969479 
-0.475104 1.48742e-17 0 1.48742e-17 -0.475104 0 0 0 -0.475104 
-0.766185 -5.35273e-17 0 -5.35273e-17 -0.766185 0 0 0 -0.766185 
1.44519 1.43426e-17 0 1.43426e-17 1.44519 0 0 0 1.44519 
-0.460297 2.03519e-17 0 2.03519e-17 -0.460297 0 0 0 -0.460297 
0.686379 -5.45327e-18 0 -5.45327e-18 0.686379 0 0 0 0.686379 
1.3354 4.17561e-16 0 4.17561e-16 1.3354 0 0 0 1.3354 
0.286513 -9.90038e-17 0 -9.90038e-17 0.286513 0 0 0 0.286513 
0.0470088 -1.23041e-16 0 -1.23041e-16 0.0470088 0 0 0 0.0470088 
-0.496874 -1.51054e-17 0 -1.51054e-17 -0.496874 0 0 0 -0.496874 
1.72842 -2.01966e-16 0 -2.01966e-16 1.72842 0 0 0 1.72842 
1.55012 5.41167e-17 0 5.41167e-17 1.55012 0 0 0 1.55012 
-0.63967 3.60889e-17 0 3.60889e-17 -0.63967 0 0 0 -0.63967 
-0.732122 -9.67e-18 0 -9.67e-18 -0.732122 0 0 0 -0.732122 
0.335011 0 0 0 0.335011 0 0 0 0.335011 
0.257271 0 0 0 0.257271 0 0 0 0.257271 
-0.465988 0 0 0 -0.465988 0 0 0 -0.465988 
-0.518463 0 0 0 -0.518463 0 0 0 -0.518463 
0.0152444 2.26748e-17 0 2.26748e-17 0.0152444 0 0 0 0.0152444 
0.296771 -1.73431e-17 0 -1.73431e-17 0.296771 0 0 0 0.296771 
-0.734114 -6.0757e-18 0 -6.0757e-18 -0.734114 0 0 0 -0.734114 
-0.544081 4.64706e-18 0 4.64706e-18 -0.544081 0 0 0 -0.544081 
-0.246178 5.32872e-18 0 5.32872e-18 -0.246178 0 0 0 -0.246178 
0.0517642 -7.86853e-18 0 -7.86853e-18 0.0517642 0 0 0 0.0517642 
-0.415009 -1.9887e-17 0 -1.9887e-17 -0.415009 0 0 0 -0.415009 
-0.213896 2.93658e-17 0 2.93658e-17 -0.213896 0 0 0 -0.213896 
0.0545059 -2.7025e-17 0 -2.7025e-17 0.0545059 0 0 0 0.0545059 
-0.0505026 -6.73428e-17 0 -6.73428e-17 -0.0505026 0 0 0 -0.0505026 
0.0178281 -7.25026e-18 0 -7.25026e-18 0.0178281 0 0 0 0.0178281 
-0.0530535 7.21278e-17 0 7.21278e-17 -0.0530535 0 0 0 -0.0530535 
-0.309972 3.3659e-17 0 3.3659e-17 -0.309972 0 0 0 -0.309972 
0.0948776 -3.07465e-18 0 -3.07465e-18 0.0948776 0 0 0 0.0948776 
-0.228187 9.03776e-18 0 9.03776e-18 -0.228187 0 0 0 -0.228187 
0.0773616 -2.49312e-17 0 -2.49312e-17 0.0773616 0 0 0 0.0773616 
-0.128001 7.1713e-18 0 7.1713e-18 -0.128001 0 0 0 -0.128001 
0.305274 -2.72663e-18 0 -2.72663e-18 0.305274 0 0 0 0.305274 
-0.252571 -2.67637e-17 0 -2.67637e-17 -0.252571 0 0 0 -0.252571 
0.0744311 1.01759e-17 0 1.01759e-17 0.0744311 0 0 0 0.0744311 
0.400406 1.38778e-17 0 1.38778e-17 0.400406 0 0 0 0.400406 
-0.118806 -3.71854e-18 0 -3.71854e-18 -0.118806 0 0 0 -0.118806 
0.214993 -5.17926e-17 0 -5.17926e-17 0.214993 0 0 0 0.214993 
-0.176868 1.38778e-17 0 1.38778e-17 -0.176868 0 0 0 -0.176868 
0.0926222 -1.66667e-17 0 -1.66667e-17 0.0926222 0 0 0 0.0926222 
0.41674 1.73472e-17 0 1.73472e-17 0.41674 0 0 0 0.41674 
-0.111165 1.73472e-17 0 1.73472e-17 -0.111165 0 0 0 -0.111165 
0.133454 -5.27222e-17 0 -5.27222e-17 0.133454 0 0 0 0.133454 
0.0317486 2.30908e-18 0 2.30908e-18 0.0317486 0 0 0 0.0317486 
0.228218 -1.35001e-17 0 -1.35001e-17 0.228218 0 0 0 0.228218 
-0.0807013 -8.6176e-18 0 -8.6176e-18 -0.0807013 0 0 0 -0.0807013 
0.0770704 5.03831e-17 0 5.03831e-17 0.0770704 0 0 0 0.0770704 
-0.0904045 -6.25835e-18 0 -6.25835e-18 -0.0904045 0 0 0 -0.0904045 
0.0745225 -6.8054e-19 0 -6.8054e-19 0.0745225 0 0 0 0.0745225 
-0.0719577 3.5375e-17 0 3.5375e-17 -0.0719577 0 0 0 -0.0719577 
0.0604841 -4.23139e-17 0 -4.23139e-17 0.0604841 0 0 0 0.0604841 
0.215951 -3.35324e-18 0 -3.35324e-18 0.215951 0 0 0 0.215951 
-0.108377 4.95955e-19 0 4.95955e-19 -0.108377 0 0 0 -0.108377 
0.26856 1.25145e-17 0 1.25145e-17 0.26856 0 0 0 0.26856 
0.00811348 -1.85093e-18 0 -1.85093e-18 0.00811348 0 0 0 0.00811348 
-0.0484457 9.82315e-18 0 9.82315e-18 -0.0484457 0 0 0 -0.0484457 
0.19008 -2.32475e-17 0 -2.32475e-17 0.19008 0 0 0 0.19008 
-0.218866 9.80341e-18 0 9.80341e-18 -0.218866 0 0 0 -0.218866 
-0.0273211 -8.95579e-18 0 -8.95579e-18 -0.0273211 0 0 0 -0.0273211 
1.49263 1.51659e-16 0 1.51659e-16 1.49263 0 0 0 1.49263 
2.44603 -4.0637e-17 0 -4.0637e-17 2.44603 0 0 0 2.44603 
-0.969479 1.51659e-16 0 1.51659e-16 -0.969479 0 0 0 -0.969479 
-0.475104 -4.0637e-17 0 -4.0637e-17 -0.475104 0 0 0 -0.475104 
-0.766185 0 0 0 -0.766185 0 0 0 -0.766185 
1.44519 0 0 0 1.44519 0 0 0 1.44519 
-0.460297 0 0 0 -0.460297 0 0 0 -0.460297 
0.686379 0 0 0 0.686379 0 0 0 0.686379 
1.3354 -6.4407e-18 0 -6.4407e-18 1.3354 0 0 0 1.3354 
0.286513 -2.4037e-17 0 -2.4037e-17 0.286513 0 0 0 0.286513 
0.0470088 2.4037e-17 0 2.4037e-17 0.0470088 0 0 0 0.0470088 
-0.496874 8.97074e-17 0 8.97074e-17 -0.496874 0 0 0 -0.496874 
1.72842 -3.66783e-17 0 -3.66783e-17 1.72842 0 0 0 1.72842 
1.55012 1.18857e-16 0 1.18857e-16 1.55012 0 0 0 1.55012 
-0.63967 4.07371e-17 0 4.07371e-17 -0.63967 0 0 0 -0.63967 
-0.732122 -8.47524e-17 0 -8.47524e-17 -0.732122 0 0 0 -0.732122 
0.335011 0 0 0 0.335011 0 0 0 0.335011 
0.257271 0 0 0 0.257271 0 0 0 0.257271 
-0.465988 0 0 0 -0.465988 0 0 0 -0.465988 
-0.518463 0 0 0 -0.518463 0 0 0 -0.518463 
0.0152444 -6.50521e-19 0 -6.50521e-19 0.0152444 0 0 0 0.0152444 
0.296771 2.42778e-18 0 2.42778e-18 0.296771 0 0 0 0.296771 
-0.734114 1.74307e-19 0 1.74307e-19 -0.734114 0 0 0 -0.734114 
-0.544081 -6.50521e-19 0 -6.50521e-19 -0.544081 0 0 0 -0.544081 
-0.246178 2.4037e-17 0 2.4037e-17 -0.246178 0 0 0 -0.246178 
0.0517642 0 0 0 0.0517642 0 0 0 0.0517642 
-0.415009 0 0 0 -0.415009 0 0 0 -0.415009 
-0.213896 -2.4037e-17 0 -2.4037e-17 -0.213896 0 0 0 -0.213896 
0.0545059 -5.7337e-17 0 -5.7337e-17 0.0545059 0 0 0 0.0545059 
-0.0505026 1.05329e-17 0 1.05329e-17 -0.0505026 0 0 0 -0.0505026 
0.0178281 3.45699e-17 0 3.45699e-17 0.0178281 0 0 0 0.0178281 
-0.0530535 8.76479e-18 0 8.76479e-18 -0.0530535 0 0 0 -0.0530535 
-0.309972 3.44234e-18 0 3.44234e-18 -0.309972 0 0 0 -0.309972 
0.0948776 -8.28478e-19 0 -8.28478e-19 0.0948776 0 0 0 0.0948776 
-0.228187 -1.29409e-17 0 -1.29409e-17 -0.228187 0 0 0 -0.228187 
0.0773616 3.44234e-18 0 3.44234e-18 0.0773616 0 0 0 0.0773616 
-0.128001 0 0 0 -0.128001 0 0 0 -0.128001 
0.305274 0 0 0 0.305274 0 0 0 0.305274 
-0.252571 0 0 0 -0.252571 0 0 0 -0.252571 
0.0744311 0 0 0 0.0744311 0 0 0 0.0744311 
0.400406 -6.02494e-17 0 -6.02494e-17 0.400406 0 0 0 0.400406 
-0.118806 2.14019e-17 0 2.14019e-17 -0.118806 0 0 0 -0.118806 
0.214993 4.01808e-17 0 4.01808e-17 0.214993 0 0 0 0.214993 
-0.176868 -1.21753e-17 0 -1.21753e-17 -0.176868 0 0 0 -0.176868 
0.0926222 2.68259e-17 0 2.68259e-17 0.0926222 0 0 0 0.0926222 
0.41674 3.44454e-17 0 3.44454e-17 0.41674 0 0 0 0.41674 
-0.111165 -1.36287e-17 0 -1.36287e-17 -0.111165 0 0 0 -0.111165 
0.133454 1.48074e-17 0 1.48074e-17 0.133454 0 0 0 0.133454 
0.0317486 3.70019e-17 0 3.70019e-17 0.0317486 0 0 0 0.0317486 
0.228218 -3.7172e-17 0 -3.7172e-17 0.228218 0 0 0 0.228218 
-0.0807013 -1.3135e-17 0 -1.3135e-17 -0.0807013 0 0 0 -0.0807013 
0.0770704 2.19787e-17 0 2.19787e-17 0.0770704 0 0 0 0.0770704 
-0.0904045 -5.20417e-17 0 -5.20417e-17 -0.0904045 0 0 0 -0.0904045 
0.0745225 1.01295e-16 0 1.01295e-16 0.0745225 0 0 0 0.0745225 
-0.0719577 6.5239e-17 0 6.5239e-17 -0.0719577 0 0 0 -0.0719577 
0.0604841 -5.20417e-17 0 -5.20417e-17 0.0604841 0 0 0 0.0604841 
0.215951 3.68629e-18 0 3.68629e-18 0.215951 0 0 0 0.215951 
-0.108377 -1.7389e-18 0 -1.7389e-18 -0.108377 0 0 0 -0.108377 
0.26856 -1.30063e-17 0 -1.30063e-17 0.26856 0 0 0 0.26856 
0.00811348 3.68629e-18 0 3.68629e-18 0.00811348 0 0 0 0.00811348 
-0.0484457 -1.37574e-17 0 -1.37574e-17 -0.0484457 0 0 0 -0.0484457 
0.19008 2.59119e-17 0 2.59119e-17 0.19008 0 0 0 0.19008 
-0.218866 4.87947e-18 0 4.87947e-18 -0.218866 0 0 0 -0.218866 
-0.0273211 -9.87738e-19 0 -9.87738e-19 -0.0273211 0 0 0 -0.0273211 
1.49263 2.03185e-17 0 2.03185e-17 1.49263 0 0 0 1.49263 
2.44603 2.03185e-17 0 2.03185e-17 2.44603 0 0 0 2.44603 
-0.969479 -7.58296e-17 0 -7.58296e-17 -0.969479 0 0 0 -0.969479 
-0.475104 -7.58296e-17 0 -7.58296e-17 -0.475104 0 0 0 -0.475104 
-0.766185 2.7631e-17 0 2.7631e-17 -0.766185 0 0 0 -0.766185 
1.44519 -7.40371e-18 0 -7.40371e-18 1.44519 0 0 0 1.44519 
-0.460297 -1.3413e-17 0 -1.3413e-17 -0.460297 0 0 0 -0.460297 
0.686379 3.59399e-18 0 3.59399e-18 0.686379 0 0 0 0.686379 
1.3354 6.81435e-18 0 6.81435e-18 1.3354 0 0 0 1.3354 
0.286513 -1.39445e-18 0 -1.39445e-18 0.286513 0 0 0 0.286513 
0.0470088 -1.94222e-17 0 -1.94222e-17 0.0470088 0 0 0 0.0470088 
-0.496874 -1.72227e-17 0 -1.72227e-17 -0.496874 0 0 0 -0.496874 
1.72842 2.36661e-16 0 2.36661e-16 1.72842 0 0 0 1.72842 
1.55012 -1.59561e-16 0 -1.59561e-16 1.55012 0 0 0 1.55012 
-0.63967 -6.94223e-17 0 -6.94223e-17 -0.63967 0 0 0 -0.63967 
-0.732122 4.43645e-17 0 4.43645e-17 -0.732122 0 0 0 -0.732122 
0.335011 0 0 0 0.335011 0 0 0 0.335011 
0.257271 0 0 0 0.257271 0 0 0 0.257271 
-0.465988 0 0 0 -0.465988 0 0 0 -0.465988 
-0.518463 0 0 0 -0.518463 0 0 0 -0.518463 
0.0152444 2.75226e-17 0 2.75226e-17 0.0152444 0 0 0 0.0152444 
0.296771 -1.26328e-17 0 -1.26328e-17 0.296771 0 0 0 0.296771 
-0.734114 -7.75024e-18 0 -7.75024e-18 -0.734114 0 0 0 -0.734114 
-0.544081 3.48557e-18 0 3.48557e-18 -0.544081 0 0 0 -0.544081 
-0.246178 -2.16056e-17 0 -2.16056e-17 -0.246178 0 0 0 -0.246178 
0.0517642 2.94444e-18 0 2.94444e-18 0.0517642 0 0 0 0.0517642 
-0.415009 -9.44965e-18 0 -9.44965e-18 -0.415009 0 0 0 -0.415009 
-0.213896 1.44499e-17 0 1.44499e-17 -0.213896 0 0 0 -0.213896 
0.0545059 -4.57667e-17 0 -4.57667e-17 0.0545059 0 0 0 0.0545059 
-0.0505026 2.60209e-18 0 2.60209e-18 -0.0505026 0 0 0 -0.0505026 
0.0178281 2.60209e-18 0 2.60209e-18 0.0178281 0 0 0 0.0178281 
-0.0530535 3.53583e-17 0 3.53583e-17 -0.0530535 0 0 0 -0.0530535 
-0.309972 1.68421e-18 0 1.68421e-18 -0.309972 0 0 0 -0.309972 
0.0948776 -1.83041e-17 0 -1.83041e-17 0.0948776 0 0 0 0.0948776 
-0.228187 -6.1447e-18 0 -6.1447e-18 -0.228187 0 0 0 -0.228187 
0.0773616 6.7786e-17 0 6.7786e-17 0.0773616 0 0 0 0.0773616 
-0.128001 -4.64818e-19 0 -4.64818e-19 -0.128001 0 0 0 -0.128001 
0.305274 1.73472e-18 0 1.73472e-18 0.305274 0 0 0 0.305274 
-0.252571 1.73472e-18 0 1.73472e-18 -0.252571 0 0 0 -0.252571 
0.0744311 -6.47408e-18 0 -6.47408e-18 0.0744311 0 0 0 0.0744311 
0.400406 -5.0029e-18 0 -5.0029e-18 0.400406 0 0 0 0.400406 
-0.118806 1.86711e-17 0 1.86711e-17 -0.118806 0 0 0 -0.118806 
0.214993 2.14561e-18 0 2.14561e-18 0.214993 0 0 0 0.214993 
-0.176868 -8.00753e-18 0 -8.00753e-18 -0.176868 0 0 0 -0.176868 
0.0926222 3.71854e-18 0 3.71854e-18 0.0926222 0 0 0 0.0926222 
0.41674 -5.55112e-17 0 -5.55112e-17 0.41674 0 0 0 0.41674 
-0.111165 -5.55112e-17 0 -5.55112e-17 -0.111165 0 0 0 -0.111165 
0.133454 5.17926e-17 0 5.17926e-17 0.133454 0 0 0 0.133454 
0.0317486 -9.18346e-18 0 -9.18346e-18 0.0317486 0 0 0 0.0317486 
0.228218 -7.20035e-18 0 -7.20035e-18 0.228218 0 0 0 0.228218 
-0.0807013 -1.05806e-17 0 -1.05806e-17 -0.0807013 0 0 0 -0.0807013 
0.0770704 3.88906e-17 0 3.88906e-17 0.0770704 0 0 0 0.0770704 
-0.0904045 -7.32898e-17 0 -7.32898e-17 -0.0904045 0 0 0 -0.0904045 
0.0745225 1.31972e-17 0 1.31972e-17 0.0745225 0 0 0 0.0745225 
-0.0719577 4.92528e-17 0 4.92528e-17 -0.0719577 0 0 0 -0.0719577 
0.0604841 1.08398e-17 0 1.08398e-17 0.0604841 0 0 0 0.0604841 
0.215951 -7.80626e-18 0 -7.80626e-18 0.215951 0 0 0 0.215951 
-0.108377 5.09631e-18 0 5.09631e-18 -0.108377 0 0 0 -0.108377 
0.26856 2.61287e-17 0 2.61287e-17 0.26856 0 0 0 0.26856 
0.00811348 -7.80626e-18 0 -7.80626e-18 0.00811348 0 0 0 0.00811348 
-0.0484457 3.34907e-18 0 3.34907e-18 -0.0484457 0 0 0 -0.0484457 
0.19008 6.92333e-18 0 6.92333e-18 0.19008 0 0 0 0.19008 
-0.218866 3.9187e-18 0 3.9187e-18 -0.218866 0 0 0 -0.218866 
-0.0273211 -9.4206e-18 0 -9.4206e-18 -0.0273211 0 0 0 -0.0273211 
-1.06959 4.44089e-16 0 4.44089e-16 -1.06959 0 0 0 -1.06959 
-1.06959 4.44089e-16 0 4.44089e-16 -1.06959 0 0 0 -1.06959 
-1.06959 4.44089e-16 0 4.44089e-16 -1.06959 0 0 0 -1.06959 
-1.06959 4.44089e-16 0 4.44089e-16 -1.06959 0 0 0 -1.06959 
-1.06959 -4.44089e-16 0 -4.44089e-16 -1.06959 0 0 0 -1.06959 
-1.06959 -4.44089e-16 0 -4.44089e-16 -1.06959 0 0 0 -1.06959 
-1.06959 -4.44089e-16 0 -4.44089e-16 -1.06959 0 0 0 -1.06959 
-1.06959 -4.44089e-16 0 -4.44089e-16 -1.06959 0 0 0 -1.06959 
-1.06959 1.11022e-16 0 1.11022e-16 -1.06959 0 0 0 -1.06959 
-1.06959 1.11022e-16 0 1.11022e-16 -1.06959 0 0 0 -1.06959 
-1.06959 1.11022e-16 0 1.11022e-16 -1.06959 0 0 0 -1.06959 
-1.06959 1.11022e-16 0 1.11022e-16 -1.06959 0 0 0 -1.06959 
-1.06959 -2.22045e-16 0 -2.22045e-16 -1.06959 0 0 0 -1.06959 
-1.06959 -2.22045e-16 0 -2.22045e-16 -1.06959 0 0 0 -1.06959 
-1.06959 -2.22045e-16 0 -2.22045e-16 -1.06959 0 0 0 -1.06959 
-1.06959 -2.22045e-16 0 -2.22045e-16 -1.06959 0 0 0 -1.06959 
-0.711108 6.245e-17 0 6.245e-17 -0.711108 0 0 0 -0.711108 
-0.711108 6.245e-17 0 6.245e-17 -0.711108 0 0 0 -0.711108 
-0.711108 6.245e-17 0 6.245e-17 -0.711108 0 0 0 -0.711108 
-0.711108 6.245e-17 0 6.245e-17 -0.711108 0 0 0 -0.711108 
-0.711108 1.8735e-16 0 1.8735e-16 -0.711108 0 0 0 -0.711108 
-0.711108 1.8735e-16 0 1.8735e-16 -0.711108 0 0 0 -0.711108 
-0.711108 1.8735e-16 0 1.8735e-16 -0.711108 0 0 0 -0.711108 
-0.711108 1.8735e-16 0 1.8735e-16 -0.711108 0 0 0 -0.711108 
-0.711108 -5.55112e-17 0 -5.55112e-17 -0.711108 0 0 0 -0.711108 
-0.711108 -5.55112e-17 0 -5.55112e-17 -0.711108 0 0 0 -0.711108 
-0.711108 -5.55112e-17 0 -5.55112e-17 -0.711108 0 0 0 -0.711108 
-0.711108 -5.55112e-17 0 -5.55112e-17 -0.711108 0 0 0 -0.711108 
-0.711108 6.93889e-17 0 6.93889e-17 -0.711108 0 0 0 -0.711108 
-0.711108 6.93889e-17 0 6.93889e-17 -0.711108 0 0 0 -0.711108 
-0.711108 6.93889e-17 0 6.93889e-17 -0.711108 0 0 0 -0.711108 
-0.711108 6.93889e-17 0 6.93889e-17 -0.711108 0 0 0 -0.711108 
38.0214 0 0 0 38.0214 0 0 0 38.0214 
38.0214 0 0 0 38.0214 0 0 0 38.0214 
38.0214 0 0 0 38.0214 0 0 0 38.0214 
38.0214 0 0 0 38.0214 0 0 0 38.0214 
38.0214 0 0 0 38.0214 0 0 0 38.0214 
38.0214 0 0 0 38.0214 0 0 0 38.0214 
38.0214 0 0 0 38.0214 0 0 0 38.0214 
38.0214 0 0 0 38.0214 0 0 0 38.0214 
38.0214 0 0 0 38.0214 0 0 0 38.0214 
38.0214 0 0 0 38.0214 0 0 0 38.0214 
38.0214 0 0 0 38.0214 0 0 0 38.0214 
38.0214 0 0 0 38.0214 0 0 0 38.0214 
38.0214 0 0 0 38.0214 0 0 0 38.0214 
38.0214 0 0 0 38.0214 0 0 0 38.0214 
38.0214 0 0 0 38.0214 0 0 0 38.0214 
38.0214 0 0 0 38.0214 0 0 0 38.0214 
47.2017 0 0 0 47.2017 0 0 0 47.2017 
47.2017 0 0 0 47.2017 0 0 0 47.2017 
47.2017 0 0 0 47.2017 0 0 0 47.2017 
47.2017 0 0 0 47.2017 0 0 0 47.2017 
47.2017 0 0 0 47.2017 0 0 0 47.2017 
47.2017 0 0 0 47.2017 0 0 0 47.2017 
47.2017 0 0 0 47.2017 0 0 0 47.2017 
47.2017 0 0 0 47.2017 0 0 0 47.2017 
47.2017 0 0 0 47.2017 0 0 0 47.2017 
47.2017 0 0 0 47.2017 0 0 0 47.2017 
47.2017 0 0 0 47.2017 0 0 0 47.2017 
47.2017 0 0 0 47.2017 0 0 0 47.2017 
47.2017 0 0 0 47.2017 0 0 0 47.2017 
47.2017 0 0 0 47.2017 0 0 0 47.2017 
47.2017 0 0 0 47.2017 0 0 0 47.2017 
47.2017 0 0 0 47.2017 0 0 0 47.2017 
-1.29149 -5.55112e-17 0 -5.55112e-17 -1.29149 0 0 0 -1.29149 
-1.29149 -5.55112e-17 0 -5.55112e-17 -1.29149 0 0 0 -1.29149 
-1.29149 -5.55112e-17 0 -5.55112e-17 -1.29149 0 0 0 -1.29149 
-1.29149 -5.55112e-17 0 -5.55112e-17 -1.29149 0 0 0 -1.29149 
-1.29149 0 0 0 -1.29149 0 0 0 -1.29149 
-1.29149 0 0 0 -1.29149 0 0 0 -1.29149 
-1.29149 0 0 0 -1.29149 0 0 0 -1.29149 
-1.29149 0 0 0 -1.29149 0 0 0 -1.29149 
-1.29149 0 0 0 -1.29149 0 0 0 -1.29149 
-1.29149 0 0 0 -1.29149 0 0 0 -1.29149 
-1.29149 0 0 0 -1.29149 0 0 0 -1.29149 
-1.29149 0 0 0 -1.29149 0 0 0 -1.29149 
-1.29149 1.66533e-16 0 1.66533e-16 -1.29149 0 0 0 -1.29149 
-1.29149 1.66533e-16 0 1.66533e-16 -1.29149 0 0 0 -1.29149 
-1.29149 1.66533e-16 0 1.66533e-16 -1.29149 0 0 0 -1.29149 
-1.29149 1.66533e-16 0 1.66533e-16 -1.29149 0 0 0 -1.29149 
1.42332 -1.11022e-16 0 -1.11022e-16 1.42332 0 0 0 1.42332 
1.42332 -1.11022e-16 0 -1.11022e-16 1.42332 0 0 0 1.42332 
1.42332 -1.11022e-16 0 -1.11022e-16 1.42332 0 0 0 1.42332 
1.42332 -1.11022e-16 0 -1.11022e-16 1.42332 0 0 0 1.42332 
1.42332 1.11022e-16 0 1.11022e-16 1.42332 0 0 0 1.42332 
1.42332 1.11022e-16 0 1.11022e-16 1.42332 0 0 0 1.42332 
1.42332 1.11022e-16 0 1.11022e-16 1.42332 0 0 0 1.42332 
1.42332 1.11022e-16 0 1.11022e-16 1.42332 0 0 0 1.42332 
1.42332 0 0 0 1.42332 0 0 0 1.42332 
1.42332 0 0 0 1.42332 0 0 0 1.42332 
1.42332 0 0 0 1.42332 0 0 0 1.42332 
1.42332 0 0 0 1.42332 0 0 0 1.42332 
1.42332 0 0 0 1.42332 0 0 0 1.42332 
1.42332 0 0 0 1.42332 0 0 0 1.42332 
1.42332 0 0 0 1.42332 0 0 0 1.42332 
1.42332 0 0 0 1.42332 0 0 0 1.42332 
-4.10927 -2.22045e-16 0 -2.22045e-16 -4.10927 0 0 0 -4.10927 
-4.10927 -2.22045e-16 0 -2.22045e-16 -4.10927 0 0 0 -4.10927 
-4.10927 -2.22045e-16 0 -2.22045e-16 -4.10927 0 0 0 -4.10927 
-4.10927 -2.22045e-16 0 -2.22045e-16 -4.10927 0 0 0 -4.10927 
-4.10927 6.66134e-16 0 6.66134e-16 -4.10927 0 0 0 -4.10927 
-4.10927 6.66134e-16 0 6.66134e-16 -4.10927 0 0 0 -4.10927 
-4.10927 6.66134e-16 0 6.66134e-16 -4.10927 0 0 0 -4.10927 
-4.10927 6.66134e-16 0 6.66134e-16 -4.10927 0 0 0 -4.10927 
-4.10927 0 0 0 -4.10927 0 0 0 -4.10927 
-4.10927 0 0 0 -4.10927 0 0 0 -4.10927 
-4.10927 0 0 0 -4.10927 0 0 0 -4.10927 
-4.10927 0 0 0 -4.10927 0 0 0 -4.10927 
-4.10927 0 0 0 -4.10927 0 0 0 -4.10927 
-4.10927 0 0 0 -4.10927 0 0 0 -4.10927 
-4.10927 0 0 0 -4.10927 0 0 0 -4.10927 
-4.10927 0 0 0 -4.10927 0 0 0 -4.10927 
-3.59728 0 0 0 -3.59728 0 0 0 -3.59728 
-3.59728 0 0 0 -3.59728 0 0 0 -3.59728 
-3.59728 0 0 0 -3.59728 0 0 0 -3.59728 
-3.59728 0 0 0 -3.59728 0 0 0 -3.59728 
-3.59728 0 0 0 -3.59728 0 0 0 -3.59728 
-3.59728 0 0 0 -3.59728 0 0 0 -3.59728 
-3.59728 0 0 0 -3.59728 0 0 0 -3.59728 
-3.59728 0 0 0 -3.59728 0 0 0 -3.59728 
-3.59728 4.44089e-16 0 4.44089e-16 -3.59728 0 0 0 -3.59728 
-3.59728 4.44089e-16 0 4.44089e-16 -3.59728 0 0 0 -3.59728 
-3.59728 4.44089e-16 0 4.44089e-16 -3.59728 0 0 0 -3.59728 
-3.59728 4.44089e-16 0 4.44089e-16 -3.59728 0 0 0 -3.59728 
-3.59728 -2.22045e-16 0 -2.22045e-16 -3.59728 0 0 0 -3.59728 
-3.59728 -2.22045e-16 0 -2.22045e-16 -3.59728 0 0 0 -3.59728 
-3.59728 -2.22045e-16 0 -2.22045e-16 -3.59728 0 0 0 -3.59728 
-3.59728 -2.22045e-16 0 -2.22045e-16 -3.59728 0 0 0 -3.59728 
-1.09858 0 0 0 -1.09858 0 0 0 -1.09858 
-1.09858 0 0 0 -1.09858 0 0 0 -1.09858 
-1.09858 0 0 0 -1.09858 0 0 0 -1.09858 
-1.09858 0 0 0 -1.09858 0 0 0 -1.09858 
-1.09858 1.11022e-16 0 1.11022e-16 -1.09858 0 0 0 -1.09858 
-1.09858 1.11022e-16 0 1.11022e-16 -1.09858 0 0 0 -1.09858 
-1.09858 1.11022e-16 0 1.11022e-16 -1.09858 0 0 0 -1.09858 
-1.09858 1.11022e-16 0 1.11022e-16 -1.09858 0 0 0 -1.09858 
-1.09858 0 0 0 -1.09858 0 0 0 -1.09858 
-1.09858 0 0 0 -1.09858 0 0 0 -1.09858 
-1.09858 0 0 0 -1.09858 0 0 0 -1.09858 
-1.09858 0 0 0 -1.09858 0 0 0 -1.09858 
-1.09858 -1.11022e-16 0 -1.11022e-16 -1.09858 0 0 0 -1.09858 
-1.09858 -1.11022e-16 0 -1.11022e-16 -1.09858 0 0 0 -1.09858 
-1.09858 -1.11022e-16 0 -1.11022e-16 -1.09858 0 0 0 -1.09858 
-1.09858 -1.11022e-16 0 -1.11022e-16 -1.09858 0 0 0 -1.09858 
-2.1242 0 0 0 -2.1242 0 0 0 -2.1242 
-2.1242 0 0 0 -2.1242 0 0 0 -2.1242 
-2.1242 0 0 0 -2.1242 0 0 0 -2.1242 
-2.1242 0 0 0 -2.1242 0 0 0 -2.1242 
-2.1242 -6.93889e-18 0 -6.93889e-18 -2.1242 0 0 0 -2.1242 
-2.1242 -6.93889e-18 0 -6.93889e-18 -2.1242 0 0 0 -2.1242 
-2.1242 -6.93889e-18 0 -6.93889e-18 -2.1242 0 0 0 -2.1242 
-2.1242 -6.93889e-18 0 -6.93889e-18 -2.1242 0 0 0 -2.1242 
-2.1242 6.93889e-18 0 6.93889e-18 -2.1242 0 0 0 -2.1242 
-2.1242 6.93889e-18 0 6.93889e-18 -2.1242 0 0 0 -2.1242 
-2.1242 6.93889e-18 0 6.93889e-18 -2.1242 0 0 0 -2.1242 
-2.1242 6.93889e-18 0 6.93889e-18 -2.1242 0 0 0 -2.1242 
-2.1242 0 0 0 -2.1242 0 0 0 -2.1242 
-2.1242 0 0 0 -2.1242 0 0 0 -2.1242 
-2.1242 0 0 0 -2.1242 0 0 0 -2.1242 
-2.1242 0 0 0 -2.1242 0 0 0 -2.1242 
-2.16391 -3.33067e-16 0 -3.33067e-16 -2.16391 0 0 0 -2.16391 
-2.16391 -3.33067e-16 0 -3.33067e-16 -2.16391 0 0 0 -2.16391 
-2.16391 -3.33067e-16 0 -3.33067e-16 -2.16391 0 0 0 -2.16391 
-2.16391 -3.33067e-16 0 -3.33067e-16 -2.16391 0 0 0 -2.16391 
-2.16391 0 0 0 -2.16391 0 0 0 -2.16391 
-2.16391 0 0 0 -2.16391 0 0 0 -2.16391 
-2.16391 0 0 0 -2.16391 0 0 0 -2.16391 
-2.16391 0 0 0 -2.16391 0 0 0 -2.16391 
-2.16391 0 0 0 -2.16391 0 0 0 -2.16391 
-2.16391 0 0 0 -2.16391 0 0 0 -2.16391 
-2.16391 0 0 0 -2.16391 0 0 0 -2.16391 
-2.16391 0 0 0 -2.16391 0 0 0 -2.16391 
-2.16391 0 0 0 -2.16391 0 0 0 -2.16391 
-2.16391 0 0 0 -2.16391 0 0 0 -2.16391 
-2.16391 0 0 0 -2.16391 0 0 0 -2.16391 
-2.16391 0 0 0 -2.16391 0 0 0 -2.16391 
-34.3544 0 0 0 -34.3544 0 0 0 -34.3544 
-34.3544 0 0 0 -34.3544 0 0 0 -34.3544 
-34.3544 0 0 0 -34.3544 0 0 0 -34.3544 
-34.3544 0 0 0 -34.3544 0 0 0 -34.3544 
-34.3544 0 0 0 -34.3544 0 0 0 -34.3544 
-34.3544 0 0 0 -34.3544 0 0 0 -34.3544 
-34.3544 0 0 0 -34.3544 0 0 0 -34.3544 
-34.3544 0 0 0 -34.3544 0 0 0 -34.3544 
-34.3544 0 0 0 -34.3544 0 0 0 -34.3544 
-34.3544 0 0 0 -34.3544 0 0 0 -34.3544 
-34.3544 0 0 0 -34.3544 0 0 0 -34.3544 
-34.3544 0 0 0 -34.3544 0 0 0 -34.3544 
-34.3544 0 0 0 -34.3544 0 0 0 -34.3544 
-34.3544 0 0 0 -34.3544 0 0 0 -34.3544 
-34.3544 0 0 0 -34.3544 0 0 0 -34.3544 
-34.3544 0 0 0 -34.3544 0 0 0 -34.3544 
-28.1273 0 0 0 -28.1273 0 0 0 -28.1273 
-28.1273 0 0 0 -28.1273 0 0 0 -28.1273 
-28.1273 0 0 0 -28.1273 0 0 0 -28.1273 
-28.1273 0 0 0 -28.1273 0 0 0 -28.1273 
-28.1273 0 0 0 -28.1273 0 0 0 -28.1273 
-28.1273 0 0 0 -28.1273 0 0 0 -28.1273 
-28.1273 0 0 0 -28.1273 0 0 0 -28.1273 
-28.1273 0 0 0 -28.1273 0 0 0 -28.1273 
-28.1273 0 0 0 -28.1273 0 0 0 -28.1273 
-28.1273 0 0 0 -28.1273 0 0 0 -28.1273 
-28.1273 0 0 0 -28.1273 0 0 0 -28.1273 
-28.1273 0 0 0 -28.1273 0 0 0 -28.1273 
-28.1273 0 0 0 -28.1273 0 0 0 -28.1273 
-28.1273 0 0 0 -28.1273 0 0 0 -28.1273 
-28.1273 0 0 0 -28.1273 0 0 0 -28.1273 
-28.1273 0 0 0 -28.1273 0 0 0 -28.1273 
-35.3362 0 0 0 -35.3362 0 0 0 -35.3362 
-35.3362 0 0 0 -35.3362 0 0 0 -35.3362 
-35.3362 0 0 0 -35.3362 0 0 0 -35.3362 
-35.3362 0 0 0 -35.3362 0 0 0 -35.3362 
-35.3362 0 0 0 -35.3362 0 0 0 -35.3362 
-35.3362 0 0 0 -35.3362 0 0 0 -35.3362 
-35.3362 0 0 0 -35.3362 0 0 0 -35.3362 
-35.3362 0 0 0 -35.3362 0 0 0 -35.3362 
-35.3362 0 0 0 -35.3362 0 0 0 -35.3362 
-35.3362 0 0 0 -35.3362 0 0 0 -35.3362 
-35.3362 0 0 0 -35.3362 0 0 0 -35.3362 
-35.3362 0 0 0 -35.3362 0 0 0 -35.3362 
-35.3362 0 0 0 -35.3362 0 0 0 -35.3362 
-35.3362 0 0 0 -35.3362 0 0 0 -35.3362 
-35.3362 0 0 0 -35.3362 0 0 0 -35.3362 
-35.3362 0 0 0 -35.3362 0 0 0 -35.3362 
-33.0397 -3.55271e-15 0 -3.55271e-15 -33.0397 0 0 0 -33.0397 
-33.0397 -3.55271e-15 0 -3.55271e-15 -33.0397 0 0 0 -33.0397 
-33.0397 -3.55271e-15 0 -3.55271e-15 -33.0397 0 0 0 -33.0397 
-33.0397 -3.55271e-15 0 -3.55271e-15 -33.0397 0 0 0 -33.0397 
-33.0397 0 0 0 -33.0397 0 0 0 -33.0397 
-33.0397 0 0 0 -33.0397 0 0 0 -33.0397 
-33.0397 0 0 0 -33.0397 0 0 0 -33.0397 
-33.0397 0 0 0 -33.0397 0 0 0 -33.0397 
-33.0397 0 0 0 -33.0397 0 0 0 -33.0397 
-33.0397 0 0 0 -33.0397 0 0 0 -33.0397 
-33.0397 0 0 0 -33.0397 0 0 0 -33.0397 
-33.0397 0 0 0 -33.0397 0 0 0 -33.0397 
-33.0397 0 0 0 -33.0397 0 0 0 -33.0397 
-33.0397 0 0 0 -33.0397 0 0 0 -33.0397 
-33.0397 0 0 0 -33.0397 0 0 0 -33.0397 
-33.0397 0 0 0 -33.0397 0 0 0 -33.0397 
69.4566 0 0 0 69.4566 0 0 0 69.4566 
69.4566 0 0 0 69.4566 0 0 0 69.4566 
69.4566 0 0 0 69.4566 0 0 0 69.4566 
69.4566 0 0 0 69.4566 0 0 0 69.4566 
69.4566 0 0 0 69.4566 0 0 0 69.4566 
69.4566 0 0 0 69.4566 0 0 0 69.4566 
69.4566 0 0 0 69.4566 0 0 0 69.4566 
69.4566 0 0 0 69.4566 0 0 0 69.4566 
69.4566 7.10543e-15 0 7.10543e-15 69.4566 0 0 0 69.4566 
69.4566 7.10543e-15 0 7.10543e-15 69.4566 0 0 0 69.4566 
69.4566 7.10543e-15 0 7.10543e-15 69.4566 0 0 0 69.4566 
69.4566 7.10543e-15 0 7.10543e-15 69.4566 0 0 0 69.4566 
69.4566 0 0 0 69.4566 0 0 0 69.4566 
69.4566 0 0 0 69.4566 0 0 0 69.4566 
69.4566 0 0 0 69.4566 0 0 0 69.4566 
69.4566 0 0 0 69.4566 0 0 0 69.4566 
54.2678 0 0 0 54.2678 0 0 0 54.2678 
54.2678 0 0 0 54.2678 0 0 0 54.2678 
54.2678 0 0 0 54.2678 0 0 0 54.2678 
54.2678 0 0 0 54.2678 0 0 0 54.2678 
54.2678 0 0 0 54.2678 0 0 0 54.2678 
54.2678 0 0 0 54.2678 0 0 0 54.2678 
54.2678 0 0 0 54.2678 0 0 0 54.2678 
54.2678 0 0 0 54.2678 0 0 0 54.2678 
54.2678 0 0 0 54.2678 0 0 0 54.2678 
54.2678 0 0 0 54.2678 0 0 0 54.2678 
54.2678 0 0 0 54.2678 0 0 0 54.2678 
54.2678 0 0 0 54.2678 0 0 0 54.2678 
54.2678 -1.06581e-14 0 -1.06581e-14 54.2678 0 0 0 54.2678 
54.2678 -1.06581e-14 0 -1.06581e-14 54.2678 0 0 0 54.2678 
54.2678 -1.06581e-14 0 -1.06581e-14 54.2678 0 0 0 54.2678 
54.2678 -1.06581e-14 0 -1.06581e-14 54.2678 0 0 0 54.2678 
0.5499 -3.60822e-16 0 -3.60822e-16 0.5499 0 0 0 0.5499 
0.5499 -3.60822e-16 0 -3.60822e-16 0.5499 0 0 0 0.5499 
0.5499 -3.60822e-16 0 -3.60822e-16 0.5499 0 0 0 0.5499 
0.5499 -3.60822e-16 0 -3.60822e-16 0.5499 0 0 0 0.5499 
0.5499 3.33067e-16 0 3.33067e-16 0.5499 0 0 0 0.5499 
0.5499 3.33067e-16 0 3.33067e-16 0.5499 0 0 0 0.5499 
0.5499 3.33067e-16 0 3.33067e-16 0.5499 0 0 0 0.5499 
0.5499 3.33067e-16 0 3.33067e-16 0.5499 0 0 0 0.5499 
0.5499 0 0 0 0.5499 0 0 0 0.5499 
0.5499 0 0 0 0.5499 0 0 0 0.5499 
0.5499 0 0 0 0.5499 0 0 0 0.5499 
0.5499 0 0 0 0.5499 0 0 0 0.5499 
0.5499 -1.66533e-16 0 -1.66533e-16 0.5499 0 0 0 0.5499 
0.5499 -1.66533e-16 0 -1.66533e-16 0.5499 0 0 0 0.5499 
0.5499 -1.66533e-16 0 -1.66533e-16 0.5499 0 0 0 0.5499 
0.5499 -1.66533e-16 0 -1.66533e-16 0.5499 0 0 0 0.5499 
0.393368 -5.55112e-17 0 -5.55112e-17 0.393368 0 0 0 0.393368 
0.393368 -5.55112e-17 0 -5.55112e-17 0.393368 0 0 0 0.393368 
0.393368 -5.55112e-17 0 -5.55112e-17 0.393368 0 0 0 0.393368 
0.393368 -5.55112e-17 0 -5.55112e-17 0.393368 0 0 0 0.393368 
0.393368 -1.38778e-17 0 -1.38778e-17 0.393368 0 0 0 0.393368 
0.393368 -1.38778e-17 0 -1.38778e-17 0.393368 0 0 0 0.393368 
0.393368 -1.38778e-17 0 -1.38778e-17 0.393368 0 0 0 0.393368 
0.393368 -1.38778e-17 0 -1.38778e-17 0.393368 0 0 0 0.393368 
0.393368 0 0 0 0.393368 0 0 0 0.393368 
0.393368 0 0 0 0.393368 0 0 0 0.393368 
0.393368 0 0 0 0.393368 0 0 0 0.393368 
0.393368 0 0 0 0.393368 0 0 0 0.393368 
0.393368 -2.77556e-17 0 -2.77556e-17 0.393368 0 0 0 0.393368 
0.393368 -2.77556e-17 0 -2.77556e-17 0.393368 0 0 0 0.393368 
0.393368 -2.77556e-17 0 -2.77556e-17 0.393368 0 0 0 0.393368 
0.393368 -2.77556e-17 0 -2.77556e-17 0.393368 0 0 0 0.393368 
0.489917 2.77556e-17 0 2.77556e-17 0.489917 0 0 0 0.489917 
0.489917 2.77556e-17 0 2.77556e-17 0.489917 0 0 0 0.489917 
0.489917 2.77556e-17 0 2.77556e-17 0.489917 0 0 0 0.489917 
0.489917 2.77556e-17 0 2.77556e-17 0.489917 0 0 0 0.489917 
0.489917 8.32667e-17 0 8.32667e-17 0.489917 0 0 0 0.489917 
0.489917 8.32667e-17 0 8.32667e-17 0.489917 0 0 0 0.489917 
0.489917 8.32667e-17 0 8.32667e-17 0.489917 0 0 0 0.489917 
0.489917 8.32667e-17 0 8.32667e-17 0.489917 0 0 0 0.489917 
0.489917 0 0 0 0.489917 0 0 0 0.489917 
0.489917 0 0 0 0.489917 0 0 0 0.489917 
0.489917 0 0 0 0.489917 0 0 0 0.489917 
0.489917 0 0 0 0.489917 0 0 0 0.489917 
0.489917 -8.32667e-17 0 -8.32667e-17 0.489917 0 0 0 0.489917 
0.489917 -8.32667e-17 0 -8.32667e-17 0.489917 0 0 0 0.489917 
0.489917 -8.32667e-17 0 -8.32667e-17 0.489917 0 0 0 0.489917 
0.489917 -8.32667e-17 0 -8.32667e-17 0.489917 0 0 0 0.489917 
-3.24508 0 0 0 -3.24508 0 0 0 -3.24508 
-3.24508 0 0 0 -3.24508 0 0 0 -3.24508 
-3.24508 0 0 0 -3.24508 0 0 0 -3.24508 
-3.24508 0 0 0 -3.24508 0 0 0 -3.24508 
-3.24508 0 0 0 -3.24508 0 0 0 -3.24508 
-3.24508 0 0 0 -3.24508 0 0 0 -3.24508 
-3.24508 0 0 0 -3.24508 0 0 0 -3.24508 
-3.24508 0 0 0 -3.24508 0 0 0 -3.24508 
-3.24508 -2.22045e-16 0 -2.22045e-16 -3.24508 0 0 0 -3.24508 
-3.24508 -2.22045e-16 0 -2.22045e-16 -3.24508 0 0 0 -3.24508 
-3.24508 -2.22045e-16 0 -2.22045e-16 -3.24508 0 0 0 -3.24508 
-3.24508 -2.22045e-16 0 -2.22045e-16 -3.24508 0 0 0 -3.24508 
-3.24508 0 0 0 -3.24508 0 0 0 -3.24508 
-3.24508 0 0 0 -3.24508 0 0 0 -3.24508 
-3.24508 0 0 0 -3.24508 0 0 0 -3.24508 
-3.24508 0 0 0 -3.24508 0 0 0 -3.24508 
0.345589 0 0 0 0.345589 0 0 0 0.345589 
0.345589 0 0 0 0.345589 0 0 0 0.345589 
0.345589 0 0 0 0.345589 0 0 0 0.345589 
0.345589 0 0 0 0.345589 0 0 0 0.345589 
0.345589 1.38778e-17 0 1.38778e-17 0.345589 0 0 0 0.345589 
0.345589 1.38778e-17 0 1.38778e-17 0.345589 0 0 0 0.345589 
0.345589 1.38778e-17 0 1.38778e-17 0.345589 0 0 0 0.345589 
0.345589 1.38778e-17 0 1.38778e-17 0.345589 0 0 0 0.345589 
0.345589 -1.38778e-17 0 -1.38778e-17 0.345589 0 0 0 0.345589 
0.345589 -1.38778e-17 0 -1.38778e-17 0.345589 0 0 0 0.345589 
0.345589 -1.38778e-17 0 -1.38778e-17 0.345589 0 0 0 0.345589 
0.345589 -1.38778e-17 0 -1.38778e-17 0.345589 0 0 0 0.345589 
0.345589 -2.77556e-17 0 -2.77556e-17 0.345589 0 0 0 0.345589 
0.345589 -2.77556e-17 0 -2.77556e-17 0.345589 0 0 0 0.345589 
0.345589 -2.77556e-17 0 -2.77556e-17 0.345589 0 0 0 0.345589 
0.345589 -2.77556e-17 0 -2.77556e-17 0.345589 0 0 0 0.345589 
1.60053 0 0 0 1.60053 0 0 0 1.60053 
1.60053 0 0 0 1.60053 0 0 0 1.60053 
1.60053 0 0 0 1.60053 0 0 0 1.60053 
1.60053 0 0 0 1.60053 0 0 0 1.60053 
1.60053 -2.77556e-17 0 -2.77556e-17 1.60053 0 0 0 1.60053 
1.60053 -2.77556e-17 0 -2.77556e-17 1.60053 0 0 0 1.60053 
1.60053 -2.77556e-17 0 -2.77556e-17 1.60053 0 0 0 1.60053 
1.60053 -2.77556e-17 0 -2.77556e-17 1.60053 0 0 0 1.60053 
1.60053 0 0 0 1.60053 0 0 0 1.60053 
1.60053 0 0 0 1.60053 0 0 0 1.60053 
1.60053 0 0 0 1.60053 0 0 0 1.60053 
1.60053 0 0 0 1.60053 0 0 0 1.60053 
1.60053 0 0 0 1.60053 0 0 0 1.60053 
1.60053 0 0 0 1.60053 0 0 0 1.60053 
1.60053 0 0 0 1.60053 0 0 0 1.60053 
1.60053 0 0 0 1.60053 0 0 0 1.60053 
-1.82047 0 0 0 -1.82047 0 0 0 -1.82047 
-1.82047 0 0 0 -1.82047 0 0 0 -1.82047 
-1.82047 0 0 0 -1.82047 0 0 0 -1.82047 
-1.82047 0 0 0 -1.82047 0 0 0 -1.82047 
-1.82047 1.11022e-16 0 1.11022e-16 -1.82047 0 0 0 -1.82047 
-1.82047 1.11022e-16 0 1.11022e-16 -1.82047 0 0 0 -1.82047 
-1.82047 1.11022e-16 0 1.11022e-16 -1.82047 0 0 0 -1.82047 
-1.82047 1.11022e-16 0 1.11022e-16 -1.82047 0 0 0 -1.82047 
-1.82047 -2.22045e-16 0 -2.22045e-16 -1.82047 0 0 0 -1.82047 
-1.82047 -2.22045e-16 0 -2.22045e-16 -1.82047 0 0 0 -1.82047 
-1.82047 -2.22045e-16 0 -2.22045e-16 -1.82047 0 0 0 -1.82047 
-1.82047 -2.22045e-16 0 -2.22045e-16 -1.82047 0 0 0 -1.82047 
-1.82047 0 0 0 -1.82047 0 0 0 -1.82047 
-1.82047 0 0 0 -1.82047 0 0 0 -1.82047 
-1.82047 0 0 0 -1.82047 0 0 0 -1.82047 
-1.82047 0 0 0 -1.82047 0 0 0 -1.82047 
2.59382 0 0 0 2.59382 0 0 0 2.59382 
2.59382 0 0 0 2.59382 0 0 0 2.59382 
2.59382 0 0 0 2.59382 0 0 0 2.59382 
2.59382 0 0 0 2.59382 0 0 0 2.59382 
2.59382 -4.44089e-16 0 -4.44089e-16 2.59382 0 0 0 2.59382 
2.59382 -4.44089e-16 0 -4.44089e-16 2.59382 0 0 0 2.59382 
2.59382 -4.44089e-16 0 -4.44089e-16 2.59382 0 0 0 2.59382 
2.59382 -4.44089e-16 0 -4.44089e-16 2.59382 0 0 0 2.59382 
2.59382 0 0 0 2.59382 0 0 0 2.59382 
2.59382 0 0 0 2.59382 0 0 0 2.59382 
2.59382 0 0 0 2.59382 0 0 0 2.59382 
2.59382 0 0 0 2.59382 0 0 0 2.59382 
2.59382 0 0 0 2.59382 0 0 0 2.59382 
2.59382 0 0 0 2.59382 0 0 0 2.59382 
2.59382 0 0 0 2.59382 0 0 0 2.59382 
2.59382 0 0 0 2.59382 0 0 0 2.59382 
-5.21276 0 0 0 -5.21276 0 0 0 -5.21276 
-5.21276 0 0 0 -5.21276 0 0 0 -5.21276 
-5.21276 0 0 0 -5.21276 0 0 0 -5.21276 
-5.21276 0 0 0 -5.21276 0 0 0 -5.21276 
-5.21276 0 0 0 -5.21276 0 0 0 -5.21276 
-5.21276 0 0 0 -5.21276 0 0 0 -5.21276 
-5.21276 0 0 0 -5.21276 0 0 0 -5.21276 
-5.21276 0 0 0 -5.21276 0 0 0 -5.21276 
-5.21276 1.11022e-16 0 1.11022e-16 -5.21276 0 0 0 -5.21276 
-5.21276 1.11022e-16 0 1.11022e-16 -5.21276 0 0 0 -5.21276 
-5.21276 1.11022e-16 0 1.11022e-16 -5.21276 0 0 0 -5.21276 
-5.21276 1.11022e-16 0 1.11022e-16 -5.21276 0 0 0 -5.21276 
-5.21276 0 0 0 -5.21276 0 0 0 -5.21276 
-5.21276 0 0 0 -5.21276 0 0 0 -5.21276 
-5.21276 0 0 0 -5.21276 0 0 0 -5.21276 
-5.21276 0 0 0 -5.21276 0 0 0 -5.21276 
-0.011147 2.70617e-16 0 2.70617e-16 -0.011147 0 0 0 -0.011147 
-0.011147 2.70617e-16 0 2.70617e-16 -0.011147 0 0 0 -0.011147 
-0.011147 2.70617e-16 0 2.70617e-16 -0.011147 0 0 0 -0.011147 
-0.011147 2.70617e-16 0 2.70617e-16 -0.011147 0 0 0 -0.011147 
-0.011147 0 0 0 -0.011147 0 0 0 -0.011147 
-0.011147 0 0 0 -0.011147 0 0 0 -0.011147 
-0.011147 0 0 0 -0.011147 0 0 0 -0.011147 
-0.011147 0 0 0 -0.011147 0 0 0 -0.011147 
-0.011147 -2.70617e-16 0 -2.70617e-16 -0.011147 0 0 0 -0.011147 
-0.011147 -2.70617e-16 0 -2.70617e-16 -0.011147 0 0 0 -0.011147 
-0.011147 -2.70617e-16 0 -2.70617e-16 -0.011147 0 0 0 -0.011147 
-0.011147 -2.70617e-16 0 -2.70617e-16 -0.011147 0 0 0 -0.011147 
-0.011147 -5.41234e-16 0 -5.41234e-16 -0.011147 0 0 0 -0.011147 
-0.011147 -5.41234e-16 0 -5.41234e-16 -0.011147 0 0 0 -0.011147 
-0.011147 -5.41234e-16 0 -5.41234e-16 -0.011147 0 0 0 -0.011147 
-0.011147 -5.41234e-16 0 -5.41234e-16 -0.011147 0 0 0 -0.011147 
3.08002 4.44089e-16 0 4.44089e-16 3.08002 0 0 0 3.08002 
3.08002 4.44089e-16 0 4.44089e-16 3.08002 0 0 0 3.08002 
3.08002 4.44089e-16 0 4.44089e-16 3.08002 0 0 0 3.08002 
3.08002 4.44089e-16 0 4.44089e-16 3.08002 0 0 0 3.08002 
3.08002 -2.22045e-16 0 -2.22045e-16 3.08002 0 0 0 3.08002 
3.08002 -2.22045e-16 0 -2.22045e-16 3.08002 0 0 0 3.08002 
3.08002 -2.22045e-16 0 -2.22045e-16 3.08002 0 0 0 3.08002 
3.08002 -2.22045e-16 0 -2.22045e-16 3.08002 0 0 0 3.08002 
3.08002 -6.66134e-16 0 -6.66134e-16 3.08002 0 0 0 3.08002 
3.08002 -6.66134e-16 0 -6.66134e-16 3.08002 0 0 0 3.08002 
3.08002 -6.66134e-16 0 -6.66134e-16 3.08002 0 0 0 3.08002 
3.08002 -6.66134e-16 0 -6.66134e-16 3.08002 0 0 0 3.08002 
3.08002 1.11022e-15 0 1.11022e-15 3.08002 0 0 0 3.08002 
3.08002 1.11022e-15 0 1.11022e-15 3.08002 0 0 0 3.08002 
3.08002 1.11022e-15 0 1.11022e-15 3.08002 0 0 0 3.08002 
3.08002 1.11022e-15 0 1.11022e-15 3.08002 0 0 0 3.08002 
-1.7749 -3.33067e-16 0 -3.33067e-16 -1.7749 0 0 0 -1.7749 
-1.7749 -3.33067e-16 0 -3.33067e-16 -1.7749 0 0 0 -1.7749 
-1.7749 -3.33067e-16 0 -3.33067e-16 -1.7749 0 0 0 -1.7749 
-1.7749 -3.33067e-16 0 -3.33067e-16 -1.7749 0 0 0 -1.7749 
-1.7749 -2.22045e-16 0 -2.22045e-16 -1.7749 0 0 0 -1.7749 
-1.7749 -2.22045e-16 0 -2.22045e-16 -1.7749 0 0 0 -1.7749 
-1.7749 -2.22045e-16 0 -2.22045e-16 -1.7749 0 0 0 -1.7749 
-1.7749 -2.22045e-16 0 -2.22045e-16 -1.7749 0 0 0 -1.7749 
-1.7749 3.33067e-16 0 3.33067e-16 -1.7749 0 0 0 -1.7749 
-1.7749 3.33067e-16 0 3.33067e-16 -1.7749 0 0 0 -1.7749 
-1.7749 3.33067e-16 0 3.33067e-16 -1.7749 0 0 0 -1.7749 
-1.7749 3.33067e-16 0 3.33067e-16 -1.7749 0 0 0 -1.7749 
-1.7749 1.11022e-16 0 1.11022e-16 -1.7749 0 0 0 -1.7749 
-1.7749 1.11022e-16 0 1.11022e-16 -1.7749 0 0 0 -1.7749 
-1.7749 1.11022e-16 0 1.11022e-16 -1.7749 0 0 0 -1.7749 
-1.7749 1.11022e-16 0 1.11022e-16 -1.7749 0 0 0 -1.7749 
8.28453 8.88178e-16 0 8.88178e-16 8.28453 0 0 0 8.28453 
8.28453 8.88178e-16 0 8.88178e-16 8.28453 0 0 0 8.28453 
8.28453 8.88178e-16 0 8.88178e-16 8.28453 0 0 0 8.28453 
8.28453 8.88178e-16 0 8.88178e-16 8.28453 0 0 0 8.28453 
8.28453 8.88178e-16 0 8.88178e-16 8.28453 0 0 0 8.28453 
8.28453 8.88178e-16 0 8.88178e-16 8.28453 0 0 0 8.28453 
8.28453 8.88178e-16 0 8.88178e-16 8.28453 0 0 0 8.28453 
8.28453 8.88178e-16 0 8.88178e-16 8.28453 0 0 0 8.28453 
8.28453 0 0 0 8.28453 0 0 0 8.28453 
8.28453 0 0 0 8.28453 0 0 0 8.28453 
8.28453 0 0 0 8.28453 0 0 0 8.28453 
8.28453 0 0 0 8.28453 0 0 0 8.28453 
8.28453 0 0 0 8.28453 0 0 0 8.28453 
8.28453 0 0 0 8.28453 0 0 0 8.28453 
8.28453 0 0 0 8.28453 0 0 0 8.28453 
8.28453 0 0 0 8.28453 0 0 0 8.28453 
2.80374 2.22045e-16 0 2.22045e-16 2.80374 0 0 0 2.80374 
2.80374 2.22045e-16 0 2.22045e-16 2.80374 0 0 0 2.80374 
2.80374 2.22045e-16 0 2.22045e-16 2.80374 0 0 0 2.80374 
2.80374 2.22045e-16 0 2.22045e-16 2.80374 0 0 0 2.80374 
2.80374 -4.44089e-16 0 -4.44089e-16 2.80374 0 0 0 2.80374 
2.80374 -4.44089e-16 0 -4.44089e-16 2.80374 0 0 0 2.80374 
2.80374 -4.44089e-16 0 -4.44089e-16 2.80374 0 0 0 2.80374 
2.80374 -4.44089e-16 0 -4.44089e-16 2.80374 0 0 0 2.80374 
2.80374 2.22045e-16 0 2.22045e-16 2.80374 0 0 0 2.80374 
2.80374 2.22045e-16 0 2.22045e-16 2.80374 0 0 0 2.80374 
2.80374 2.22045e-16 0 2.22045e-16 2.80374 0 0 0 2.80374 
2.80374 2.22045e-16 0 2.22045e-16 2.80374 0 0 0 2.80374 
2.80374 2.22045e-16 0 2.22045e-16 2.80374 0 0 0 2.80374 
2.80374 2.22045e-16 0 2.22045e-16 2.80374 0 0 0 2.80374 
2.80374 2.22045e-16 0 2.22045e-16 2.80374 0 0 0 2.80374 
2.80374 2.22045e-16 0 2.22045e-16 2.80374 0 0 0 2.80374 
-1.12855 -8.32667e-17 0 -8.32667e-17 -1.12855 0 0 0 -1.12855 
-1.12855 -8.32667e-17 0 -8.32667e-17 -1.12855 0 0 0 -1.12855 
-1.12855 -8.32667e-17 0 -8.32667e-17 -1.12855 0 0 0 -1.12855 
-1.12855 -8.32667e-17 0 -8.32667e-17 -1.12855 0 0 0 -1.12855 
-1.12855 0 0 0 -1.12855 0 0 0 -1.12855 
-1.12855 0 0 0 -1.12855 0 0 0 -1.12855 
-1.12855 0 0 0 -1.12855 0 0 0 -1.12855 
-1.12855 0 0 0 -1.12855 0 0 0 -1.12855 
-1.12855 -4.16334e-16 0 -4.16334e-16 -1.12855 0 0 0 -1.12855 
-1.12855 -4.16334e-16 0 -4.16334e-16 -1.12855 0 0 0 -1.12855 
-1.12855 -4.16334e-16 0 -4.16334e-16 -1.12855 0 0 0 -1.12855 
-1.12855 -4.16334e-16 0 -4.16334e-16 -1.12855 0 0 0 -1.12855 
-1.12855 0 0 0 -1.12855 0 0 0 -1.12855 
-1.12855 0 0 0 -1.12855 0 0 0 -1.12855 
-1.12855 0 0 0 -1.12855 0 0 0 -1.12855 
-1.12855 0 0 0 -1.12855 0 0 0 -1.12855 
2.41408 5.55112e-17 0 5.55112e-17 2.41408 0 0 0 2.41408 
2.41408 5.55112e-17 0 5.55112e-17 2.41408 0 0 0 2.41408 
2.41408 5.55112e-17 0 5.55112e-17 2.41408 0 0 0 2.41408 
2.41408 5.55112e-17 0 5.55112e-17 2.41408 0 0 0 2.41408 
2.41408 0 0 0 2.41408 0 0 0 2.41408 
2.41408 0 0 0 2.41408 0 0 0 2.41408 
2.41408 0 0 0 2.41408 0 0 0 2.41408 
2.41408 0 0 0 2.41408 0 0 0 2.41408 
2.41408 0 0 0 2.41408 0 0 0 2.41408 
2.41408 0 0 0 2.41408 0 0 0 2.41408 
2.41408 0 0 0 2.41408 0 0 0 2.41408 
2.41408 0 0 0 2.41408 0 0 0 2.41408 
2.41408 -5.55112e-17 0 -5.55112e-17 2.41408 0 0 0 2.41408 
2.41408 -5.55112e-17 0 -5.55112e-17 2.41408 0 0 0 2.41408 
2.41408 -5.55112e-17 0 -5.55112e-17 2.41408 0 0 0 2.41408 
2.41408 -5.55112e-17 0 -5.55112e-17 2.41408 0 0 0 2.41408 
1.06454 -4.44089e-16 0 -4.44089e-16 1.06454 0 0 0 1.06454 
1.06454 -4.44089e-16 0 -4.44089e-16 1.06454 0 0 0 1.06454 
1.06454 -4.44089e-16 0 -4.44089e-16 1.06454 0 0 0 1.06454 
1.06454 -4.44089e-16 0 -4.44089e-16 1.06454 0 0 0 1.06454 
1.06454 3.33067e-16 0 3.33067e-16 1.06454 0 0 0 1.06454 
1.06454 3.33067e-16 0 3.33067e-16 1.06454 0 0 0 1.06454 
1.06454 3.33067e-16 0 3.33067e-16 1.06454 0 0 0 1.06454 
1.06454 3.33067e-16 0 3.33067e-16 1.06454 0 0 0 1.06454 
1.06454 -2.22045e-16 0 -2.22045e-16 1.06454 0 0 0 1.06454 
1.06454 -2.22045e-16 0 -2.22045e-16 1.06454 0 0 0 1.06454 
1.06454 -2.22045e-16 0 -2.22045e-16 1.06454 0 0 0 1.06454 
1.06454 -2.22045e-16 0 -2.22045e-16 1.06454 0 0 0 1.06454 
1.06454 2.22045e-16 0 2.22045e-16 1.06454 0 0 0 1.06454 
1.06454 2.22045e-16 0 2.22045e-16 1.06454 0 0 0 1.06454 
1.06454 2.22045e-16 0 2.22045e-16 1.06454 0 0 0 1.06454 
1.06454 2.22045e-16 0 2.22045e-16 1.06454 0 0 0 1.06454 

TENSORS Strain float
-0.000136683 0.000110423 0 0.000110423 0.000156025 0 0 0 0 
-0.000136683 0.000110423 0 0.000110423 0.000156025 0 0 0 0 
-0.000136683 0.000110423 0 0.000110423 0.000156025 0 0 0 0 
-0.000136683 0.000110423 0 0.000110423 0.000156025 0 0 0 0 
-2.76366e-05 0.00046862 0 0.00046862 -4.37832e-05 0 0 0 0 
-2.76366e-05 0.00046862 0 0.00046862 -4.37832e-05 0 0 0 0 
-2.76366e-05 0.00046862 0 0.00046862 -4.37832e-05 0 0 0 0 
-2.76366e-05 0.00046862 0 0.00046862 -4.37832e-05 0 0 0 0 
0.000754777 -0.00010685 0 -0.00010685 -0.000664404 0 0 0 0 
0.000754777 -0.00010685 0 -0.00010685 -0.000664404 0 0 0 0 
0.000754777 -0.00010685 0 -0.00010685 -0.000664404 0 0 0 0 
0.000754777 -0.00010685 0 -0.00010685 -0.000664404 0 0 0 0 
-0.000140629 -0.000112264 0 -0.000112264 0.000142857 0 0 0 0 
-0.000140629 -0.000112264 0 -0.000112264 0.000142857 0 0 0 0 
-0.000140629 -0.000112264 0 -0.000112264 0.000142857 0 0 0 0 
-0.000140629 -0.000112264 0 -0.000112264 0.000142857 0 0 0 0 
6.26285e-05 0.000404075 0 0.000404075 -2.80663e-05 0 0 0 0 
6.26285e-05 0.000404075 0 0.000404075 -2.80663e-05 0 0 0 0 
6.26285e-05 0.000404075 0 0.000404075 -2.80663e-05 0 0 0 0 
6.26285e-05 0.000404075 0 0.000404075 -2.80663e-05 0 0 0 0 
4.56413e-05 -0.000131454 0 -0.000131454 8.77261e-05 0 0 0 0 
4.56413e-05 -0.000131454 0 -0.000131454 8.77261e-05 0 0 0 0 
4.56413e-05 -0.000131454 0 -0.000131454 8.77261e-05 0 0 0 0 
4.56413e-05 -0.000131454 0 -0.000131454 8.77261e-05 0 0 0 0 
-0.00029389 -0.000412933 0 -0.000412933 0.000197761 0 0 0 0 
-0.00029389 -0.000412933 0 -0.000412933 0.000197761 0 0 0 0 
-0.00029389 -0.000412933 0 -0.000412933 0.000197761 0 0 0 0 
-0.00029389 -0.000412933 0 -0.000412933 0.000197761 0 0 0 0 
0.000952855 -0.000154169 0 -0.000154169 -0.000971571 0 0 0 0 
0.000952855 -0.000154169 0 -0.000154169 -0.000971571 0 0 0 0 
0.000952855 -0.000154169 0 -0.000154169 -0.000971571 0 0 0 0 
0.000952855 -0.000154169 0 -0.000154169 -0.000971571 0 0 0 0 
0.000252315 -0.000148577 0 -0.000148577 -0.000361333 0 0 0 0 
0.000252315 -0.000148577 0 -0.000148577 -0.000361333 0 0 0 0 
0.000252315 -0.000148577 0 -0.000148577 -0.000361333 0 0 0 0 
0.000252315 -0.000148577 0 -0.000148577 -0.000361333 0 0 0 0 
0.000710202 -5.54996e-05 0 -5.54996e-05 -0.000770154 0 0 0 0 
0.000710202 -5.54996e-05 0 -5.54996e-05 -0.000770154 0 0 0 0 
0.000710202 -5.54996e-05 0 -5.54996e-05 -0.000770154 0 0 0 0 
0.000710202 -5.54996e-05 0 -5.54996e-05 -0.000770154 0 0 0 0 
-9.07895e-05 -0.000190328 0 -0.000190328 0.000126637 0 0 0 0 
-9.07895e-05 -0.000190328 0 -0.000190328 0.000126637 0 0 0 0 
-9.07895e-05 -0.000190328 0 -0.000190328 0.000126637 0 0 0 0 
-9.07895e-05 -0.000190328 0 -0.000190328 0.000126637 0 0 0 0 
0.000732081 -0.000191193 0 -0.000191193 -0.000977706 0 0 0 0 
0.000732081 -0.000191193 0 -0.000191193 -0.000977706 0 0 0 0 
0.000732081 -0.000191193 0 -0.000191193 -0.000977706 0 0 0 0 
0.000732081 -0.000191193 0 -0.000191193 -0.000977706 0 0 0 0 
0.000591751 -0.000225432 0 -0.000225432 -0.000535833 0 0 0 0 
0.000591751 -0.000225432 0 -0.000225432 -0.000535833 0 0 0 0 
0.000591751 -0.000225432 0 -0.000225432 -0.000535833 0 0 0 0 
0.000591751 -0.000225432 0 -0.000225432 -0.000535833 0 0 0 0 
0.000572749 -0.000528297 0 -0.000528297 -0.000307581 0 0 0 0 
0.000572749 -0.000528297 0 -0.000528297 -0.000307581 0 0 0 0 
0.000572749 -0.000528297 0 -0.000528297 -0.000307581 0 0 0 0 
0.000572749 -0.000528297 0 -0.000528297 -0.000307581 0 0 0 0 
8.80441e-05 0.000401146 0 0.000401146 -0.000129821 0 0 0 0 
8.80441e-05 0.000401146 0 0.000401146 -0.000129821 0 0 0 0 
8.80441e-05 0.000401146 0 0.000401146 -0.000129821 0 0 0 0 
8.80441e-05 0.000401146 0 0.000401146 -0.000129821 0 0 0 0 
-0.000159828 6.19305e-05 0 6.19305e-05 5.95579e-05 0 0 0 0 
-0.000159828 6.19305e-05 0 6.19305e-05 5.95579e-05 0 0 0 0 
-0.000159828 6.19305e-05 0 6.19305e-05 5.95579e-05 0 0 0 0 
-0.000159828 6.19305e-05 0 6.19305e-05 5.95579e-05 0 0 0 0 
-7.79142e-05 0.000386352 0 0.000386352 9.74668e-05 0 0 0 0 
-7.79142e-05 0.000386352 0 0.000386352 9.74668e-05 0 0 0 0 
-7.79142e-05 0.000386352 0 0.000386352 9.74668e-05 0 0 0 0 
-7.79142e-05 0.000386352 0 0.000386352 9.74668e-05 0 0 0 0 
0.000107385 -1.1725e-05 0 -1.1725e-05 -0.000242357 0 0 0 0 
0.000107385 -1.1725e-05 0 -1.1725e-05 -0.000242357 0 0 0 0 
0.000107385 -1.1725e-05 0 -1.1725e-05 -0.000242357 0 0 0 0 
0.000107385 -1.1725e-05 0 -1.1725e-05 -0.000242357 0 0 0 0 
0.000156025 -0.000110423 0 -0.000110423 -0.000136683 0 0 0 0 
0.000156025 -0.000110423 0 -0.000110423 -0.000136683 0 0 0 0 
0.000156025 -0.000110423 0 -0.000110423 -0.000136683 0 0 0 0 
0.000156025 -0.000110423 0 -0.000110423 -0.000136683 0 0 0 0 
-4.37832e-05 -0.00046862 0 -0.00046862 -2.76366e-05 0 0 0 0 
-4.37832e-05 -0.00046862 0 -0.00046862 -2.76366e-05 0 0 0 0 
-4.37832e-05 -0.00046862 0 -0.00046862 -2.76366e-05 0 0 0 0 
-4.37832e-05 -0.00046862 0 -0.00046862 -2.76366e-05 0 0 0 0 
-0.000664404 0.00010685 0 0.00010685 0.000754777 0 0 0 0 
-0.000664404 0.00010685 0 0.00010685 0.000754777 0 0 0 0 
-0.000664404 0.00010685 0 0.00010685 0.000754777 0 0 0 0 
-0.000664404 0.00010685 0 0.00010685 0.000754777 0 0 0 0 
0.000142857 0.000112264 0 0.000112264 -0.000140629 0 0 0 0 
0.000142857 0.000112264 0 0.000112264 -0.000140629 0 0 0 0 
0.000142857 0.000112264 0 0.000112264 -0.000140629 0 0 0 0 
0.000142857 0.000112264 0 0.000112264 -0.000140629 0 0 0 0 
-2.80663e-05 -0.000404075 0 -0.000404075 6.26285e-05 0 0 0 0 
-2.80663e-05 -0.000404075 0 -0.000404075 6.26285e-05 0 0 0 0 
-2.80663e-05 -0.000404075 0 -0.000404075 6.26285e-05 0 0 0 0 
-2.80663e-05 -0.000404075 0 -0.000404075 6.26285e-05 0 0 0 0 
8.77261e-05 0.000131454 0 0.000131454 4.56413e-05 0 0 0 0 
8.77261e-05 0.000131454 0 0.000131454 4.56413e-05 0 0 0 0 
8.77261e-05 0.000131454 0 0.000131454 4.56413e-05 0 0 0 0 
8.77261e-05 0.000131454 0 0.000131454 4.56413e-05 0 0 0 0 
0.000197761 0.000412933 0 0.000412933 -0.00029389 0 0 0 0 
0.000197761 0.000412933 0 0.000412933 -0.00029389 0 0 0 0 
0.000197761 0.000412933 0 0.000412933 -0.00029389 0 0 0 0 
0.000197761 0.000412933 0 0.000412933 -0.00029389 0 0 0 0 
-0.000971571 0.000154169 0 0.000154169 0.000952855 0 0 0 0 
-0.000971571 0.000154169 0 0.000154169 0.000952855 0 0 0 0 
-0.000971571 0.000154169 0 0.000154169 0.000952855 0 0 0 0 
-0.000971571 0.000154169 0 0.000154169 0.000952855 0 0 0 0 
-0.000361333 0.000148577 0 0.000148577 0.000252315 0 0 0 0 
-0.000361333 0.000148577 0 0.000148577 0.000252315 0 0 0 0 
-0.000361333 0.000148577 0 0.000148577 0.000252315 0 0 0 0 
-0.000361333 0.000148577 0 0.000148577 0.000252315 0 0 0 0 
-0.000770154 5.54996e-05 0 5.54996e-05 0.000710202 0 0 0 0 
-0.000770154 5.54996e-05 0 5.54996e-05 0.000710202 0 0 0 0 
-0.000770154 5.54996e-05 0 5.54996e-05 0.000710202 0 0 0 0 
-0.000770154 5.54996e-05 0 5.54996e-05 0.000710202 0 0 0 0 
0.000126637 0.000190328 0 0.000190328 -9.07895e-05 0 0 0 0 
0.000126637 0.000190328 0 0.000190328 -9.07895e-05 0 0 0 0 
0.000126637 0.000190328 0 0.000190328 -9.07895e-05 0 0 0 0 
0.000126637 0.000190328 0 0.000190328 -9.07895e-05 0 0 0 0 
-0.000977706 0.000191193 0 0.000191193 0.000732081 0 0 0 0 
-0.000977706 0.000191193 0 0.000191193 0.000732081 0 0 0 0 
-0.000977706 0.000191193 0 0.000191193 0.000732081 0 0 0 0 
-0.000977706 0.000191193 0 0.000191193 0.000732081 0 0 0 0 
-0.000535833 0.000225432 0 0.000225432 0.000591751 0 0 0 0 
-0.000535833 0.000225432 0 0.000225432 0.000591751 0 0 0 0 
-0.000535833 0.000225432 0 0.000225432 0.000591751 0 0 0 0 
-0.000535833 0.000225432 0 0.000225432 0.000591751 0 0 0 0 
-0.000307581 0.000528297 0 0.000528297 0.000572749 0 0 0 0 
-0.000307581 0.000528297 0 0.000528297 0.000572749 0 0 0 0 
-0.000307581 0.000528297 0 0.000528297 0.000572749 0 0 0 0 
-0.000307581 0.000528297 0 0.000528297 0.000572749 0 0 0 0 
-0.000129821 -0.000401146 0 -0.000401146 8.80441e-05 0 0 0 0 
-0.000129821 -0.000401146 0 -0.000401146 8.80441e-05 0 0 0 0 
-0.000129821 -0.000401146 0 -0.000401146 8.80441e-05 0 0 0 0 
-0.000129821 -0.000401146 0 -0.000401146 8.80441e-05 0 0 0 0 
5.95579e-05 -6.19305e-05 0 -6.19305e-05 -0.000159828 0 0 0 0 
5.95579e-05 -6.19305e-05 0 -6.19305e-05 -0.000159828 0 0 0 0 
5.95579e-05 -6.19305e-05 0 -6.19305e-05 -0.000159828 0 0 0 0 
5.95579e-05 -6.19305e-05 0 -6.19305e-05 -0.000159828 0 0 0 0 
9.74668e-05 -0.000386352 0 -0.000386352 -7.79142e-05 0 0 0 0 
9.74668e-05 -0.000386352 0 -0.000386352 -7.79142e-05 0 0 0 0 
9.74668e-05 -0.000386352 0 -0.000386352 -7.79142e-05 0 0 0 0 
9.74668e-05 -0.000386352 0 -0.000386352 -7.79142e-05 0 0 0 0 
-0.000242357 1.1725e-05 0 1.1725e-05 0.000107385 0 0 0 0 
-0.000242357 1.1725e-05 0 1.1725e-05 0.000107385 0 0 0 0 
-0.000242357 1.1725e-05 0 1.1725e-05 0.000107385 0 0 0 0 
-0.000242357 1.1725e-05 0 1.1725e-05 0.000107385 0 0 0 0 
-0.000136683 0.000110423 0 0.000110423 0.000156025 0 0 0 0 
-0.000136683 0.000110423 0 0.000110423 0.000156025 0 0 0 0 
-0.000136683 0.000110423 0 0.000110423 0.000156025 0 0 0 0 
-0.000136683 0.000110423 0 0.000110423 0.000156025 0 0 0 0 
-2.76366e-05 0.00046862 0 0.00046862 -4.37832e-05 0 0 0 0 
-2.76366e-05 0.00046862 0 0.00046862 -4.37832e-05 0 0 0 0 
-2.76366e-05 0.00046862 0 0.00046862 -4.37832e-05 0 0 0 0 
-2.76366e-05 0.00046862 0 0.00046862 -4.37832e-05 0 0 0 0 
0.000754777 -0.00010685 0 -0.00010685 -0.000664404 0 0 0 0 
0.000754777 -0.00010685 0 -0.00010685 -0.000664404 0 0 0 0 
0.000754777 -0.00010685 0 -0.00010685 -0.000664404 0 0 0 0 
0.000754777 -0.00010685 0 -0.00010685 -0.000664404 0 0 0 0 
-0.000140629 -0.000112264 0 -0.000112264 0.000142857 0 0 0 0 
-0.000140629 -0.000112264 0 -0.000112264 0.000142857 0 0 0 0 
-0.000140629 -0.000112264 0 -0.000112264 0.000142857 0 0 0 0 
-0.000140629 -0.000112264 0 -0.000112264 0.000142857 0 0 0 0 
6.26285e-05 0.000404075 0 0.000404075 -2.80663e-05 0 0 0 0 
6.26285e-05 0.000404075 0 0.000404075 -2.80663e-05 0 0 0 0 
6.26285e-05 0.000404075 0 0.000404075 -2.80663e-05 0 0 0 0 
6.26285e-05 0.000404075 0 0.000404075 -2.80663e-05 0 0 0 0 
4.56413e-05 -0.000131454 0 -0.000131454 8.77261e-05 0 0 0 0 
4.56413e-05 -0.000131454 0 -0.000131454 8.77261e-05 0 0 0 0 
4.56413e-05 -0.000131454 0 -0.000131454 8.77261e-05 0 0 0 0 
4.56413e-05 -0.000131454 0 -0.000131454 8.77261e-05 0 0 0 0 
-0.00029389 -0.000412933 0 -0.000412933 0.000197761 0 0 0 0 
-0.00029389 -0.000412933 0 -0.000412933 0.000197761 0 0 0 0 
-0.00029389 -0.000412933 0 -0.000412933 0.000197761 0 0 0 0 
-0.00029389 -0.000412933 0 -0.000412933 0.000197761 0 0 0 0 
0.000952855 -0.000154169 0 -0.000154169 -0.000971571 0 0 0 0 
0.000952855 -0.000154169 0 -0.000154169 -0.000971571 0 0 0 0 
0.000952855 -0.000154169 0 -0.000154169 -0.000971571 0 0 0 0 
0.000952855 -0.000154169 0 -0.000154169 -0.000971571 0 0 0 0 
0.000252315 -0.000148577 0 -0.000148577 -0.000361333 0 0 0 0 
0.000252315 -0.000148577 0 -0.000148577 -0.000361333 0 0 0 0 
0.000252315 -0.000148577 0 -0.000148577 -0.000361333 0 0 0 0 
0.000252315 -0.000148577 0 -0.000148577 -0.000361333 0 0 0 0 
0.000710202 -5.54996e-05 0 -5.54996e-05 -0.000770154 0 0 0 0 
0.000710202 -5.54996e-05 0 -5.54996e-05 -0.000770154 0 0 0 0 
0.000710202 -5.54996e-05 0 -5.54996e-05 -0.000770154 0 0 0 0 
0.000710202 -5.54996e-05 0 -5.54996e-05 -0.000770154 0 0 0 0 
-9.07895e-05 -0.000190328 0 -0.000190328 0.000126637 0 0 0 0 
-9.07895e-05 -0.000190328 0 -0.000190328 0.000126637 0 0 0 0 
-9.07895e-05 -0.000190328 0 -0.000190328 0.000126637 0 0 0 0 
-9.07895e-05 -0.000190328 0 -0.000190328 0.000126637 0 0 0 0 
0.000732081 -0.000191193 0 -0.000191193 -0.000977706 0 0 0 0 
0.000732081 -0.000191193 0 -0.000191193 -0.000977706 0 0 0 0 
0.000732081 -0.000191193 0 -0.000191193 -0.000977706 0 0 0 0 
0.000732081 -0.000191193 0 -0.000191193 -0.000977706 0 0 0 0 
0.000591751 -0.000225432 0 -0.000225432 -0.000535833 0 0 0 0 
0.000591751 -0.000225432 0 -0.000225432 -0.000535833 0 0 0 0 
0.000591751 -0.000225432 0 -0.000225432 -0.000535833 0 0 0 0 
0.000591751 -0.000225432 0 -0.000225432 -0.000535833 0 0 0 0 
0.000572749 -0.000528297 0 -0.000528297 -0.000307581 0 0 0 0 
0.000572749 -0.000528297 0 -0.000528297 -0.000307581 0 0 0 0 
0.000572749 -0.000528297 0 -0.000528297 -0.000307581 0 0 0 0 
0.000572749 -0.000528297 0 -0.000528297 -0.000307581 0 0 0 0 
8.80441e-05 0.000401146 0 0.000401146 -0.000129821 0 0 0 0 
8.80441e-05 0.000401146 0 0.000401146 -0.000129821 0 0 0 0 
8.80441e-05 0.000401146 0 0.000401146 -0.000129821 0 0 0 0 
8.80441e-05 0.000401146 0 0.000401146 -0.000129821 0 0 0 0 
-0.000159828 6.19305e-05 0 6.19305e-05 5.95579e-05 0 0 0 0 
-0.000159828 6.19305e-05 0 6.19305e-05 5.95579e-05 0 0 0 0 
-0.000159828 6.19305e-05 0 6.19305e-05 5.95579e-05 0 0 0 0 
-0.000159828 6.19305e-05 0 6.19305e-05 5.95579e-05 0 0 0 0 
-7.79142e-05 0.000386352 0 0.000386352 9.74668e-05 0 0 0 0 
-7.79142e-05 0.000386352 0 0.000386352 9.74668e-05 0 0 0 0 
-7.79142e-05 0.000386352 0 0.000386352 9.74668e-05 0 0 0 0 
-7.79142e-05 0.000386352 0 0.000386352 9.74668e-05 0 0 0 0 
0.000107385 -1.1725e-05 0 -1.1725e-05 -0.000242357 0 0 0 0 
0.000107385 -1.1725e-05 0 -1.1725e-05 -0.000242357 0 0 0 0 
0.000107385 -1.1725e-05 0 -1.1725e-05 -0.000242357 0 0 0 0 
0.000107385 -1.1725e-05 0 -1.1725e-05 -0.000242357 0 0 0 0 
0.000156025 -0.000110423 0 -0.000110423 -0.000136683 0 0 0 0 
0.000156025 -0.000110423 0 -0.000110423 -0.000136683 0 0 0 0 
0.000156025 -0.000110423 0 -0.000110423 -0.000136683 0 0 0 0 
0.000156025 -0.000110423 0 -0.000110423 -0.000136683 0 0 0 0 
-4.37832e-05 -0.00046862 0 -0.00046862 -2.76366e-05 0 0 0 0 
-4.37832e-05 -0.00046862 0 -0.00046862 -2.76366e-05 0 0 0 0 
-4.37832e-05 -0.00046862 0 -0.00046862 -2.76366e-05 0 0 0 0 
-4.37832e-05 -0.00046862 0 -0.00046862 -2.76366e-05 0 0 0 0 
-0.000664404 0.00010685 0 0.00010685 0.000754777 0 0 0 0 
-0.000664404 0.00010685 0 0.00010685 0.000754777 0 0 0 0 
-0.000664404 0.00010685 0 0.00010685 0.000754777 0 0 0 0 
-0.000664404 0.00010685 0 0.00010685 0.000754777 0 0 0 0 
0.000142857 0.000112264 0 0.000112264 -0.000140629 0 0 0 0 
0.000142857 0.000112264 0 0.000112264 -0.000140629 0 0 0 0 
0.000142857 0.000112264 0 0.000112264 -0.000140629 0 0 0 0 
0.000142857 0.000112264 0 0.000112264 -0.000140629 0 0 0 0 
-2.80663e-05 -0.000404075 0 -0.000404075 6.26285e-05 0 0 0 0 
-2.80663e-05 -0.000404075 0 -0.000404075 6.26285e-05 0 0 0 0 
-2.80663e-05 -0.000404075 0 -0.000404075 6.26285e-05 0 0 0 0 
-2.80663e-05 -0.000404075 0 -0.000404075 6.26285e-05 0 0 0 0 
8.77261e-05 0.000131454 0 0.000131454 4.56413e-05 0 0 0 0 
8.77261e-05 0.000131454 0 0.000131454 4.56413e-05 0 0 0 0 
8.77261e-05 0.000131454 0 0.000131454 4.56413e-05 0 0 0 0 
8.77261e-05 0.000131454 0 0.000131454 4.56413e-05 0 0 0 0 
0.000197761 0.000412933 0 0.000412933 -0.00029389 0 0 0 0 
0.000197761 0.000412933 0 0.000412933 -0.00029389 0 0 0 0 
0.000197761 0.000412933 0 0.000412933 -0.00029389 0 0 0 0 
0.000197761 0.000412933 0 0.000412933 -0.00029389 0 0 0 0 
-0.000971571 0.000154169 0 0.000154169 0.000952855 0 0 0 0 
-0.000971571 0.000154169 0 0.000154169 0.000952855 0 0 0 0 
-0.000971571 0.000154169 0 0.000154169 0.000952855 0 0 0 0 
-0.000971571 0.000154169 0 0.000154169 0.000952855 0 0 0 0 
-0.000361333 0.000148577 0 0.000148577 0.000252315 0 0 0 0 
-0.000361333 0.000148577 0 0.000148577 0.000252315 0 0 0 0 
-0.000361333 0.000148577 0 0.000148577 0.000252315 0 0 0 0 
-0.000361333 0.000148577 0 0.000148577 0.000252315 0 0 0 0 
-0.000770154 5.54996e-05 0 5.54996e-05 0.000710202 0 0 0 0 
-0.000770154 5.54996e-05 0 5.54996e-05 0.000710202 0 0 0 0 
-0.000770154 5.54996e-05 0 5.54996e-05 0.000710202 0 0 0 0 
-0.000770154 5.54996e-05 0 5.54996e-05 0.000710202 0 0 0 0 
0.000126637 0.000190328 0 0.000190328 -9.07895e-05 0 0 0 0 
0.000126637 0.000190328 0 0.000190328 -9.07895e-05 0 0 0 0 
0.000126637 0.000190328 0 0.000190328 -9.07895e-05 0 0 0 0 
0.000126637 0.000190328 0 0.000190328 -9.07895e-05 0 0 0 0 
-0.000977706 0.000191193 0 0.000191193 0.000732081 0 0 0 0 
-0.000977706 0.000191193 0 0.000191193 0.000732081 0 0 0 0 
-0.000977706 0.000191193 0 0.000191193 0.000732081 0 0 0 0 
-0.000977706 0.000191193 0 0.000191193 0.000732081 0 0 0 0 
-0.000535833 0.000225432 0 0.000225432 0.000591751 0 0 0 0 
-0.000535833 0.000225432 0 0.000225432 0.000591751 0 0 0 0 
-0.000535833 0.000225432 0 0.000225432 0.000591751 0 0 0 0 
-0.000535833 0.000225432 0 0.000225432 0.000591751 0 0 0 0 
-0.000307581 0.000528297 0 0.000528297 0.000572749 0 0 0 0 
-0.000307581 0.000528297 0 0.000528297 0.000572749 0 0 0 0 
-0.000307581 0.000528297 0 0.000528297 0.000572749 0 0 0 0 
-0.000307581 0.000528297 0 0.000528297 0.000572749 0 0 0 0 
5.95579e-05 -6.19305e-05 0 -6.19305e-05 -0.000159828 0 0 0 0 
5.95579e-05 -6.19305e-05 0 -6.19305e-05 -0.000159828 0 0 0 0 
5.95579e-05 -6.19305e-05 0 -6.19305e-05 -0.000159828 0 0 0 0 
5.95579e-05 -6.19305e-05 0 -6.19305e-05 -0.000159828 0 0 0 0 
-0.000129821 -0.000401146 0 -0.000401146 8.80441e-05 0 0 0 0 
-0.000129821 -0.000401146 0 -0.000401146 8.80441e-05 0 0 0 0 
-0.000129821 -0.000401146 0 -0.000401146 8.80441e-05 0 0 0 0 
-0.000129821 -0.000401146 0 -0.000401146 8.80441e-05 0 0 0 0 
9.74668e-05 -0.000386352 0 -0.000386352 -7.79142e-05 0 0 0 0 
9.74668e-05 -0.000386352 0 -0.000386352 -7.79142e-05 0 0 0 0 
9.74668e-05 -0.000386352 0 -0.000386352 -7.79142e-05 0 0 0 0 
9.74668e-05 -0.000386352 0 -0.000386352 -7.79142e-05 0 0 0 0 
-0.000242357 1.1725e-05 0 1.1725e-05 0.000107385 0 0 0 0 
-0.000242357 1.1725e-05 0 1.1725e-05 0.000107385 0 0 0 0 
-0.000242357 1.1725e-05 0 1.1725e-05 0.000107385 0 0 0 0 
-0.000242357 1.1725e-05 0 1.1725e-05 0.000107385 0 0 0 0 
0.00385789 -0.00209949 0 -0.00209949 -0.00251452 0 0 0 0 
0.00385789 -0.000519859 0 -0.000519859 -0.00165646 0 0 0 0 
0.000815734 -0.000991544 0 -0.000991544 -0.00168827 0 0 0 0 
0.000815734 -0.00017245 0 -0.00017245 -0.00124333 0 0 0 0 
0.00154997 0.000640203 0 0.000640203 -0.00223954 0 0 0 0 
0.00154997 0.000994815 0 0.000994815 -0.000249301 0 0 0 0 
0.000867042 -0.000147295 0 -0.000147295 -0.00128131 0 0 0 0 
0.000867042 3.65833e-05 0 3.65833e-05 -0.000249301 0 0 0 0 
0.00145116 -0.000387936 0 -0.000387936 -0.000249301 0 0 0 0 
0.00145116 0.000214158 0 0.000214158 -0.0011933 0 0 0 0 
0.000291609 6.65658e-05 0 6.65658e-05 -0.000249301 0 0 0 0 
0.000291609 0.000378772 0 0.000378772 -0.000738796 0 0 0 0 
0.0021622 0.000978586 0 0.000978586 -0.000606631 0 0 0 0 
0.0021622 0.00212536 0 0.00212536 -0.000767096 0 0 0 0 
-4.63305e-05 0.000503711 0 0.000503711 -0.000529372 0 0 0 0 
-4.63305e-05 0.00109836 0 0.00109836 -0.000612579 0 0 0 0 
0.00100565 -0.000827117 0 -0.000827117 -0.000704141 0 0 0 0 
0.00100565 -0.00030755 0 -0.00030755 -0.000774107 0 0 0 0 
0.000330229 -0.000466668 0 -0.000466668 -0.000749618 0 0 0 0 
0.000330229 -0.000115956 0 -0.000115956 -0.000796845 0 0 0 0 
0.000861117 -0.000198126 0 -0.000198126 -0.000847397 0 0 0 0 
0.000861117 0.000384016 0 0.000384016 -0.000594023 0 0 0 0 
0.00010435 -9.12791e-05 0 -9.12791e-05 -0.000765053 0 0 0 0 
0.00010435 0.000301671 0 0.000301671 -0.000594023 0 0 0 0 
0.000372463 0.000300249 0 0.000300249 -0.000594023 0 0 0 0 
0.000372463 0.000417135 0 0.000417135 -0.000325875 0 0 0 0 
0.000220515 0.000213103 0 0.000213103 -0.000594023 0 0 0 0 
0.000220515 0.000292002 0 0.000292002 -0.000413021 0 0 0 0 
0.000125778 0.000604616 0 0.000604616 -7.67228e-05 0 0 0 0 
0.000125778 0.000653636 0 0.000653636 -0.000171231 0 0 0 0 
6.20538e-05 0.0006194 0 0.0006194 -4.60085e-05 0 0 0 0 
6.20538e-05 0.000652488 0 0.000652488 -0.000109802 0 0 0 0 
0.000361119 -0.000269936 0 -0.000269936 -0.000640093 0 0 0 0 
0.000361119 -0.000162777 0 -0.000162777 -0.000275729 0 0 0 0 
0.000255983 -0.000306739 0 -0.000306739 -0.000461351 0 0 0 0 
0.000255983 -0.000225864 0 -0.000225864 -0.000186358 0 0 0 0 
0.000134087 -0.000132459 0 -0.000132459 -0.000249288 0 0 0 0 
0.000134087 7.92981e-05 0 7.92981e-05 0.000140659 0 0 0 0 
-7.36711e-05 -0.000176166 0 -0.000176166 -0.000153642 0 0 0 0 
-7.36711e-05 -1.63478e-05 0 -1.63478e-05 0.000140659 0 0 0 0 
0.000219706 2.37934e-06 0 2.37934e-06 0.000140659 0 0 0 0 
0.000219706 0.000172464 0 0.000172464 -0.000326632 0 0 0 0 
5.28342e-05 0.000116996 0 0.000116996 0.000140659 0 0 0 0 
5.28342e-05 0.000245362 0 0.000245362 -0.000212015 0 0 0 0 
5.94466e-05 0.000482944 0 0.000482944 2.39134e-05 0 0 0 0 
5.94466e-05 0.000596956 0 0.000596956 0.000315619 0 0 0 0 
-5.24124e-05 0.00038343 0 0.00038343 -4.76358e-05 0 0 0 0 
-5.24124e-05 0.000469477 0 0.000469477 0.000172521 0 0 0 0 
0.000253296 -0.000278896 0 -0.000278896 -0.000224723 0 0 0 0 
0.000253296 -6.20302e-05 0 -6.20302e-05 -4.78999e-05 0 0 0 0 
8.24351e-05 -0.000228293 0 -0.000228293 -0.000155066 0 0 0 0 
8.24351e-05 -5.41431e-05 0 -5.41431e-05 -1.30717e-05 0 0 0 0 
-6.56945e-05 -1.45128e-05 0 -1.45128e-05 -1.56696e-05 0 0 0 0 
-6.56945e-05 1.52354e-06 0 1.52354e-06 0.000132765 0 0 0 0 
-7.8329e-05 -4.05909e-05 0 -4.05909e-05 1.3567e-05 0 0 0 0 
-7.8329e-05 -2.77131e-05 0 -2.77131e-05 0.000132765 0 0 0 0 
6.15915e-05 0.000129817 0 0.000129817 0.000132765 0 0 0 0 
6.15915e-05 6.97211e-05 0 6.97211e-05 -0.000159131 0 0 0 0 
0.000108939 0.000187311 0 0.000187311 0.000132765 0 0 0 0 
0.000108939 0.000139052 0 0.000139052 -0.000101637 0 0 0 0 
-5.23811e-05 0.000209139 0 0.000209139 8.77996e-06 0 0 0 0 
-5.23811e-05 0.000350145 0 0.000350145 0.000223454 0 0 0 0 
-0.000163475 0.000139082 0 0.000139082 -3.35037e-05 0 0 0 0 
-0.000163475 0.000252314 0 0.000252314 0.000138886 0 0 0 0 
-0.00251452 0.00209949 0 0.00209949 0.00385789 0 0 0 0 
-0.00165646 0.000519859 0 0.000519859 0.00385789 0 0 0 0 
-0.00168827 0.000991544 0 0.000991544 0.000815734 0 0 0 0 
-0.00124333 0.00017245 0 0.00017245 0.000815734 0 0 0 0 
-0.00223954 -0.000640203 0 -0.000640203 0.00154997 0 0 0 0 
-0.000249301 -0.000994815 0 -0.000994815 0.00154997 0 0 0 0 
-0.00128131 0.000147295 0 0.000147295 0.000867042 0 0 0 0 
-0.000249301 -3.65833e-05 0 -3.65833e-05 0.000867042 0 0 0 0 
-0.000249301 0.000387936 0 0.000387936 0.00145116 0 0 0 0 
-0.0011933 -0.000214158 0 -0.000214158 0.00145116 0 0 0 0 
-0.000249301 -6.65658e-05 0 -6.65658e-05 0.000291609 0 0 0 0 
-0.000738796 -0.000378772 0 -0.000378772 0.000291609 0 0 0 0 
-0.000606631 -0.000978586 0 -0.000978586 0.0021622 0 0 0 0 
-0.000767096 -0.00212536 0 -0.00212536 0.0021622 0 0 0 0 
-0.000529372 -0.000503711 0 -0.000503711 -4.63305e-05 0 0 0 0 
-0.000612579 -0.00109836 0 -0.00109836 -4.63305e-05 0 0 0 0 
-0.000704141 0.000827117 0 0.000827117 0.00100565 0 0 0 0 
-0.000774107 0.00030755 0 0.00030755 0.00100565 0 0 0 0 
-0.000749618 0.000466668 0 0.000466668 0.000330229 0 0 0 0 
-0.000796845 0.000115956 0 0.000115956 0.000330229 0 0 0 0 
-0.000847397 0.000198126 0 0.000198126 0.000861117 0 0 0 0 
-0.000594023 -0.000384016 0 -0.000384016 0.000861117 0 0 0 0 
-0.000765053 9.12791e-05 0 9.12791e-05 0.00010435 0 0 0 0 
-0.000594023 -0.000301671 0 -0.000301671 0.00010435 0 0 0 0 
-0.000594023 -0.000300249 0 -0.000300249 0.000372463 0 0 0 0 
-0.000325875 -0.000417135 0 -0.000417135 0.000372463 0 0 0 0 
-0.000594023 -0.000213103 0 -0.000213103 0.000220515 0 0 0 0 
-0.000413021 -0.000292002 0 -0.000292002 0.000220515 0 0 0 0 
-7.67228e-05 -0.000604616 0 -0.000604616 0.000125778 0 0 0 0 
-0.000171231 -0.000653636 0 -0.000653636 0.000125778 0 0 0 0 
-4.60085e-05 -0.0006194 0 -0.0006194 6.20538e-05 0 0 0 0 
-0.000109802 -0.000652488 0 -0.000652488 6.20538e-05 0 0 0 0 
-0.000640093 0.000269936 0 0.000269936 0.000361119 0 0 0 0 
-0.000275729 0.000162777 0 0.000162777 0.000361119 0 0 0 0 
-0.000461351 0.000306739 0 0.000306739 0.000255983 0 0 0 0 
-0.000186358 0.000225864 0 0.000225864 0.000255983 0 0 0 0 
-0.000249288 0.000132459 0 0.000132459 0.000134087 0 0 0 0 
0.000140659 -7.92981e-05 0 -7.92981e-05 0.000134087 0 0 0 0 
-0.000153642 0.000176166 0 0.000176166 -7.36711e-05 0 0 0 0 
0.000140659 1.63478e-05 0 1.63478e-05 -7.36711e-05 0 0 0 0 
0.000140659 -2.37934e-06 0 -2.37934e-06 0.000219706 0 0 0 0 
-0.000326632 -0.000172464 0 -0.000172464 0.000219706 0 0 0 0 
0.000140659 -0.000116996 0 -0.000116996 5.28342e-05 0 0 0 0 
-0.000212015 -0.000245362 0 -0.000245362 5.28342e-05 0 0 0 0 
2.39134e-05 -0.000482944 0 -0.000482944 5.94466e-05 0 0 0 0 
0.000315619 -0.000596956 0 -0.000596956 5.94466e-05 0 0 0 0 
-4.76358e-05 -0.00038343 0 -0.00038343 -5.24124e-05 0 0 0 0 
0.000172521 -0.000469477 0 -0.000469477 -5.24124e-05 0 0 0 0 
-0.000224723 0.000278896 0 0.000278896 0.000253296 0 0 0 0 
-4.78999e-05 6.20302e-05 0 6.20302e-05 0.000253296 0 0 0 0 
-0.000155066 0.000228293 0 0.000228293 8.24351e-05 0 0 0 0 
-1.30717e-05 5.41431e-05 0 5.41431e-05 8.24351e-05 0 0 0 0 
-1.56696e-05 1.45128e-05 0 1.45128e-05 -6.56945e-05 0 0 0 0 
0.000132765 -1.52354e-06 0 -1.52354e-06 -6.56945e-05 0 0 0 0 
1.3567e-05 4.05909e-05 0 4.05909e-05 -7.8329e-05 0 0 0 0 
0.000132765 2.77131e-05 0 2.77131e-05 -7.8329e-05 0 0 0 0 
0.000132765 -0.000129817 0 -0.000129817 6.15915e-05 0 0 0 0 
-0.000159131 -6.97211e-05 0 -6.97211e-05 6.15915e-05 0 0 0 0 
0.000132765 -0.000187311 0 -0.000187311 0.000108939 0 0 0 0 
-0.000101637 -0.000139052 0 -0.000139052 0.000108939 0 0 0 0 
8.77996e-06 -0.000209139 0 -0.000209139 -5.23811e-05 0 0 0 0 
0.000223454 -0.000350145 0 -0.000350145 -5.23811e-05 0 0 0 0 
-3.35037e-05 -0.000139082 0 -0.000139082 -0.000163475 0 0 0 0 
0.000138886 -0.000252314 0 -0.000252314 -0.000163475 0 0 0 0 
0.00385789 -0.00209949 0 -0.00209949 -0.00251452 0 0 0 0 
0.00385789 -0.000519859 0 -0.000519859 -0.00165646 0 0 0 0 
0.000815734 -0.000991544 0 -0.000991544 -0.00168827 0 0 0 0 
0.000815734 -0.00017245 0 -0.00017245 -0.00124333 0 0 0 0 
0.00154997 0.000640203 0 0.000640203 -0.00223954 0 0 0 0 
0.00154997 0.000994815 0 0.000994815 -0.000249301 0 0 0 0 
0.000867042 -0.000147295 0 -0.000147295 -0.00128131 0 0 0 0 
0.000867042 3.65833e-05 0 3.65833e-05 -0.000249301 0 0 0 0 
0.00145116 -0.000387936 0 -0.000387936 -0.000249301 0 0 0 0 
0.00145116 0.000214158 0 0.000214158 -0.0011933 0 0 0 0 
0.000291609 6.65658e-05 0 6.65658e-05 -0.000249301 0 0 0 0 
0.000291609 0.000378772 0 0.000378772 -0.000738796 0 0 0 0 
0.0021622 0.000978586 0 0.000978586 -0.000606631 0 0 0 0 
0.0021622 0.00212536 0 0.00212536 -0.000767096 0 0 0 0 
-4.63305e-05 0.000503711 0 0.000503711 -0.000529372 0 0 0 0 
-4.63305e-05 0.00109836 0 0.00109836 -0.000612579 0 0 0 0 
0.00100565 -0.000827117 0 -0.000827117 -0.000704141 0 0 0 0 
0.00100565 -0.00030755 0 -0.00030755 -0.000774107 0 0 0 0 
0.000330229 -0.000466668 0 -0.000466668 -0.000749618 0 0 0 0 
0.000330229 -0.000115956 0 -0.000115956 -0.000796845 0 0 0 0 
0.000861117 -0.000198126 0 -0.000198126 -0.000847397 0 0 0 0 
0.000861117 0.000384016 0 0.000384016 -0.000594023 0 0 0 0 
0.00010435 -9.12791e-05 0 -9.12791e-05 -0.000765053 0 0 0 0 
0.00010435 0.000301671 0 0.000301671 -0.000594023 0 0 0 0 
0.000372463 0.000300249 0 0.000300249 -0.000594023 0 0 0 0 
0.000372463 0.000417135 0 0.000417135 -0.000325875 0 0 0 0 
0.000220515 0.000213103 0 0.000213103 -0.000594023 0 0 0 0 
0.000220515 0.000292002 0 0.000292002 -0.000413021 0 0 0 0 
0.000125778 0.000604616 0 0.000604616 -7.67228e-05 0 0 0 0 
0.000125778 0.000653636 0 0.000653636 -0.000171231 0 0 0 0 
6.20538e-05 0.0006194 0 0.0006194 -4.60085e-05 0 0 0 0 
6.20538e-05 0.000652488 0 0.000652488 -0.000109802 0 0 0 0 
0.000361119 -0.000269936 0 -0.000269936 -0.000640093 0 0 0 0 
0.000361119 -0.000162777 0 -0.000162777 -0.000275729 0 0 0 0 
0.000255983 -0.000306739 0 -0.000306739 -0.000461351 0 0 0 0 
0.000255983 -0.000225864 0 -0.000225864 -0.000186358 0 0 0 0 
0.000134087 -0.000132459 0 -0.000132459 -0.000249288 0 0 0 0 
0.000134087 7.92981e-05 0 7.92981e-05 0.000140659 0 0 0 0 
-7.36711e-05 -0.000176166 0 -0.000176166 -0.000153642 0 0 0 0 
-7.36711e-05 -1.63477e-05 0 -1.63477e-05 0.000140659 0 0 0 0 
0.000219706 2.37934e-06 0 2.37934e-06 0.000140659 0 0 0 0 
0.000219706 0.000172464 0 0.000172464 -0.000326632 0 0 0 0 
5.28342e-05 0.000116996 0 0.000116996 0.000140659 0 0 0 0 
5.28342e-05 0.000245362 0 0.000245362 -0.000212015 0 0 0 0 
5.94466e-05 0.000482944 0 0.000482944 2.39134e-05 0 0 0 0 
5.94466e-05 0.000596956 0 0.000596956 0.000315619 0 0 0 0 
-5.24124e-05 0.00038343 0 0.00038343 -4.76358e-05 0 0 0 0 
-5.24124e-05 0.000469477 0 0.000469477 0.000172521 0 0 0 0 
0.000253296 -0.000278896 0 -0.000278896 -0.000224723 0 0 0 0 
0.000253296 -6.20302e-05 0 -6.20302e-05 -4.78999e-05 0 0 0 0 
8.24351e-05 -0.000228293 0 -0.000228293 -0.000155066 0 0 0 0 
8.24351e-05 -5.41431e-05 0 -5.41431e-05 -1.30717e-05 0 0 0 0 
-6.56945e-05 -1.45128e-05 0 -1.45128e-05 -1.56696e-05 0 0 0 0 
-6.56945e-05 1.52354e-06 0 1.52354e-06 0.000132765 0 0 0 0 
-7.8329e-05 -4.05909e-05 0 -4.05909e-05 1.3567e-05 0 0 0 0 
-7.8329e-05 -2.77131e-05 0 -2.77131e-05 0.000132765 0 0 0 0 
6.15915e-05 0.000129817 0 0.000129817 0.000132765 0 0 0 0 
6.15915e-05 6.97211e-05 0 6.97211e-05 -0.000159131 0 0 0 0 
0.000108939 0.000187311 0 0.000187311 0.000132765 0 0 0 0 
0.000108939 0.000139052 0 0.000139052 -0.000101637 0 0 0 0 
-5.23811e-05 0.000209139 0 0.000209139 8.77996e-06 0 0 0 0 
-5.23811e-05 0.000350145 0 0.000350145 0.000223454 0 0 0 0 
-0.000163475 0.000139082 0 0.000139082 -3.35037e-05 0 0 0 0 
-0.000163475 0.000252314 0 0.000252314 0.000138886 0 0 0 0 
-0.00251452 0.00209949 0 0.00209949 0.00385789 0 0 0 0 
-0.00165646 0.000519859 0 0.000519859 0.00385789 0 0 0 0 
-0.00168827 0.000991544 0 0.000991544 0.000815734 0 0 0 0 
-0.00124333 0.00017245 0 0.00017245 0.000815734 0 0 0 0 
-0.00223954 -0.000640203 0 -0.000640203 0.00154997 0 0 0 0 
-0.000249301 -0.000994815 0 -0.000994815 0.00154997 0 0 0 0 
-0.00128131 0.000147295 0 0.000147295 0.000867042 0 0 0 0 
-0.000249301 -3.65833e-05 0 -3.65833e-05 0.000867042 0 0 0 0 
-0.000249301 0.000387936 0 0.000387936 0.00145116 0 0 0 0 
-0.0011933 -0.000214158 0 -0.000214158 0.00145116 0 0 0 0 
-0.000249301 -6.65658e-05 0 -6.65658e-05 0.000291609 0 0 0 0 
-0.000738796 -0.000378772 0 -0.000378772 0.000291609 0 0 0 0 
-0.000606631 -0.000978586 0 -0.000978586 0.0021622 0 0 0 0 
-0.000767096 -0.00212536 0 -0.00212536 0.0021622 0 0 0 0 
-0.000529372 -0.000503711 0 -0.000503711 -4.63305e-05 0 0 0 0 
-0.000612579 -0.00109836 0 -0.00109836 -4.63305e-05 0 0 0 0 
-0.000704141 0.000827117 0 0.000827117 0.00100565 0 0 0 0 
-0.000774107 0.00030755 0 0.00030755 0.00100565 0 0 0 0 
-0.000749618 0.000466668 0 0.000466668 0.000330229 0 0 0 0 
-0.000796845 0.000115956 0 0.000115956 0.000330229 0 0 0 0 
-0.000847397 0.000198126 0 0.000198126 0.000861117 0 0 0 0 
-0.000594023 -0.000384016 0 -0.000384016 0.000861117 0 0 0 0 
-0.000765053 9.12791e-05 0 9.12791e-05 0.00010435 0 0 0 0 
-0.000594023 -0.000301671 0 -0.000301671 0.00010435 0 0 0 0 
-0.000594023 -0.000300249 0 -0.000300249 0.000372463 0 0 0 0 
-0.000325875 -0.000417135 0 -0.000417135 0.000372463 0 0 0 0 
-0.000594023 -0.000213103 0 -0.000213103 0.000220515 0 0 0 0 
-0.000413021 -0.000292002 0 -0.000292002 0.000220515 0 0 0 0 
-7.67228e-05 -0.000604616 0 -0.000604616 0.000125778 0 0 0 0 
-0.000171231 -0.000653636 0 -0.000653636 0.000125778 0 0 0 0 
-4.60085e-05 -0.0006194 0 -0.0006194 6.20538e-05 0 0 0 0 
-0.000109802 -0.000652488 0 -0.000652488 6.20538e-05 0 0 0 0 
-0.000640093 0.000269936 0 0.000269936 0.000361119 0 0 0 0 
-0.000275729 0.000162777 0 0.000162777 0.000361119 0 0 0 0 
-0.000461351 0.000306739 0 0.000306739 0.000255983 0 0 0 0 
-0.000186358 0.000225864 0 0.000225864 0.000255983 0 0 0 0 
-0.000249288 0.000132459 0 0.000132459 0.000134087 0 0 0 0 
0.000140659 -7.92981e-05 0 -7.92981e-05 0.000134087 0 0 0 0 
-0.000153642 0.000176166 0 0.000176166 -7.36711e-05 0 0 0 0 
0.000140659 1.63478e-05 0 1.63478e-05 -7.36711e-05 0 0 0 0 
0.000140659 -2.37934e-06 0 -2.37934e-06 0.000219706 0 0 0 0 
-0.000326632 -0.000172464 0 -0.000172464 0.000219706 0 0 0 0 
0.000140659 -0.000116996 0 -0.000116996 5.28342e-05 0 0 0 0 
-0.000212015 -0.000245362 0 -0.000245362 5.28342e-05 0 0 0 0 
2.39134e-05 -0.000482944 0 -0.000482944 5.94466e-05 0 0 0 0 
0.000315619 -0.000596956 0 -0.000596956 5.94466e-05 0 0 0 0 
-4.76358e-05 -0.00038343 0 -0.00038343 -5.24124e-05 0 0 0 0 
0.000172521 -0.000469477 0 -0.000469477 -5.24124e-05 0 0 0 0 
-0.000224723 0.000278896 0 0.000278896 0.000253296 0 0 0 0 
-4.78999e-05 6.20302e-05 0 6.20302e-05 0.000253296 0 0 0 0 
-0.000155066 0.000228293 0 0.000228293 8.24351e-05 0 0 0 0 
-1.30717e-05 5.41431e-05 0 5.41431e-05 8.24351e-05 0 0 0 0 
-1.56696e-05 1.45128e-05 0 1.45128e-05 -6.56945e-05 0 0 0 0 
0.000132765 -1.52354e-06 0 -1.52354e-06 -6.56945e-05 0 0 0 0 
1.3567e-05 4.05909e-05 0 4.05909e-05 -7.8329e-05 0 0 0 0 
0.000132765 2.77131e-05 0 2.77131e-05 -7.8329e-05 0 0 0 0 
0.000132765 -0.000129817 0 -0.000129817 6.15915e-05 0 0 0 0 
-0.000159131 -6.97211e-05 0 -6.97211e-05 6.15915e-05 0 0 0 0 
0.000132765 -0.000187311 0 -0.000187311 0.000108939 0 0 0 0 
-0.000101637 -0.000139052 0 -0.000139052 0.000108939 0 0 0 0 
8.77996e-06 -0.000209139 0 -0.000209139 -5.23811e-05 0 0 0 0 
0.000223454 -0.000350145 0 -0.000350145 -5.23811e-05 0 0 0 0 
-3.35037e-05 -0.000139082 0 -0.000139082 -0.000163475 0 0 0 0 
0.000138886 -0.000252314 0 -0.000252314 -0.000163475 0 0 0 0 
0.00176212 0.00477776 0 0.00477776 -0.00272475 0 0 0 0 
0.00176212 0.00477776 0 0.00477776 -0.00272475 0 0 0 0 
0.00176212 0.00477776 0 0.00477776 -0.00272475 0 0 0 0 
0.00176212 0.00477776 0 0.00477776 -0.00272475 0 0 0 0 
-0.00272475 -0.00477776 0 -0.00477776 0.00176212 0 0 0 0 
-0.00272475 -0.00477776 0 -0.00477776 0.00176212 0 0 0 0 
-0.00272475 -0.00477776 0 -0.00477776 0.00176212 0 0 0 0 
-0.00272475 -0.00477776 0 -0.00477776 0.00176212 0 0 0 0 
0.00176212 0.00477776 0 0.00477776 -0.00272475 0 0 0 0 
0.00176212 0.00477776 0 0.00477776 -0.00272475 0 0 0 0 
0.00176212 0.00477776 0 0.00477776 -0.00272475 0 0 0 0 
0.00176212 0.00477776 0 0.00477776 -0.00272475 0 0 0 0 
-0.00272475 -0.00477776 0 -0.00477776 0.00176212 0 0 0 0 
-0.00272475 -0.00477776 0 -0.00477776 0.00176212 0 0 0 0 
-0.00272475 -0.00477776 0 -0.00477776 0.00176212 0 0 0 0 
-0.00272475 -0.00477776 0 -0.00477776 0.00176212 0 0 0 0 
0.0124183 0.000629445 0 0.000629445 -0.0130582 0 0 0 0 
0.0124183 0.000629445 0 0.000629445 -0.0130582 0 0 0 0 
0.0124183 0.000629445 0 0.000629445 -0.0130582 0 0 0 0 
0.0124183 0.000629445 0 0.000629445 -0.0130582 0 0 0 0 
0.0124183 0.000629445 0 0.000629445 -0.0130582 0 0 0 0 
0.0124183 0.000629445 0 0.000629445 -0.0130582 0 0 0 0 
0.0124183 0.000629445 0 0.000629445 -0.0130582 0 0 0 0 
0.0124183 0.000629445 0 0.000629445 -0.0130582 0 0 0 0 
-0.0130582 -0.000629445 0 -0.000629445 0.0124183 0 0 0 0 
-0.0130582 -0.000629445 0 -0.000629445 0.0124183 0 0 0 0 
-0.0130582 -0.000629445 0 -0.000629445 0.0124183 0 0 0 0 
-0.0130582 -0.000629445 0 -0.000629445 0.0124183 0 0 0 0 
-0.0130582 -0.000629445 0 -0.000629445 0.0124183 0 0 0 0 
-0.0130582 -0.000629445 0 -0.000629445 0.0124183 0 0 0 0 
-0.0130582 -0.000629445 0 -0.000629445 0.0124183 0 0 0 0 
-0.0130582 -0.000629445 0 -0.000629445 0.0124183 0 0 0 0 
0.108085 -0.0497226 0 -0.0497226 -0.0738662 0 0 0 0 
0.108085 -0.0497226 0 -0.0497226 -0.0738662 0 0 0 0 
0.108085 -0.0497226 0 -0.0497226 -0.0738662 0 0 0 0 
0.108085 -0.0497226 0 -0.0497226 -0.0738662 0 0 0 0 
-0.0738662 0.0497226 0 0.0497226 0.108085 0 0 0 0 
-0.0738662 0.0497226 0 0.0497226 0.108085 0 0 0 0 
-0.0738662 0.0497226 0 0.0497226 0.108085 0 0 0 0 
-0.0738662 0.0497226 0 0.0497226 0.108085 0 0 0 0 
0.108085 -0.0497226 0 -0.0497226 -0.0738662 0 0 0 0 
0.108085 -0.0497226 0 -0.0497226 -0.0738662 0 0 0 0 
0.108085 -0.0497226 0 -0.0497226 -0.0738662 0 0 0 0 
0.108085 -0.0497226 0 -0.0497226 -0.0738662 0 0 0 0 
-0.0738662 0.0497226 0 0.0497226 0.108085 0 0 0 0 
-0.0738662 0.0497226 0 0.0497226 0.108085 0 0 0 0 
-0.0738662 0.0497226 0 0.0497226 0.108085 0 0 0 0 
-0.0738662 0.0497226 0 0.0497226 0.108085 0 0 0 0 
0.0887153 0.0843225 0 0.0843225 -0.0462338 0 0 0 0 
0.0887153 0.0843225 0 0.0843225 -0.0462338 0 0 0 0 
0.0887153 0.0843225 0 0.0843225 -0.0462338 0 0 0 0 
0.0887153 0.0843225 0 0.0843225 -0.0462338 0 0 0 0 
-0.0462338 -0.0843225 0 -0.0843225 0.0887153 0 0 0 0 
-0.0462338 -0.0843225 0 -0.0843225 0.0887153 0 0 0 0 
-0.0462338 -0.0843225 0 -0.0843225 0.0887153 0 0 0 0 
-0.0462338 -0.0843225 0 -0.0843225 0.0887153 0 0 0 0 
-0.0462338 -0.0843225 0 -0.0843225 0.0887153 0 0 0 0 
-0.0462338 -0.0843225 0 -0.0843225 0.0887153 0 0 0 0 
-0.0462338 -0.0843225 0 -0.0843225 0.0887153 0 0 0 0 
-0.0462338 -0.0843225 0 -0.0843225 0.0887153 0 0 0 0 
0.0887153 0.0843225 0 0.0843225 -0.0462338 0 0 0 0 
0.0887153 0.0843225 0 0.0843225 -0.0462338 0 0 0 0 
0.0887153 0.0843225 0 0.0843225 -0.0462338 0 0 0 0 
0.0887153 0.0843225 0 0.0843225 -0.0462338 0 0 0 0 
0.00165566 -0.00283619 0 -0.00283619 -0.002818 0 0 0 0 
0.00165566 -0.00283619 0 -0.00283619 -0.002818 0 0 0 0 
0.00165566 -0.00283619 0 -0.00283619 -0.002818 0 0 0 0 
0.00165566 -0.00283619 0 -0.00283619 -0.002818 0 0 0 0 
-0.002818 0.00283619 0 0.00283619 0.00165566 0 0 0 0 
-0.002818 0.00283619 0 0.00283619 0.00165566 0 0 0 0 
-0.002818 0.00283619 0 0.00283619 0.00165566 0 0 0 0 
-0.002818 0.00283619 0 0.00283619 0.00165566 0 0 0 0 
0.00165566 -0.00283619 0 -0.00283619 -0.002818 0 0 0 0 
0.00165566 -0.00283619 0 -0.00283619 -0.002818 0 0 0 0 
0.00165566 -0.00283619 0 -0.00283619 -0.002818 0 0 0 0 
0.00165566 -0.00283619 0 -0.00283619 -0.002818 0 0 0 0 
-0.002818 0.00283619 0 0.00283619 0.00165566 0 0 0 0 
-0.002818 0.00283619 0 0.00283619 0.00165566 0 0 0 0 
-0.002818 0.00283619 0 0.00283619 0.00165566 0 0 0 0 
-0.002818 0.00283619 0 0.00283619 0.00165566 0 0 0 0 
0.0119334 -0.000455895 0 -0.000455895 -0.0106525 0 0 0 0 
0.0119334 -0.000455895 0 -0.000455895 -0.0106525 0 0 0 0 
0.0119334 -0.000455895 0 -0.000455895 -0.0106525 0 0 0 0 
0.0119334 -0.000455895 0 -0.000455895 -0.0106525 0 0 0 0 
-0.0106525 0.000455895 0 0.000455895 0.0119334 0 0 0 0 
-0.0106525 0.000455895 0 0.000455895 0.0119334 0 0 0 0 
-0.0106525 0.000455895 0 0.000455895 0.0119334 0 0 0 0 
-0.0106525 0.000455895 0 0.000455895 0.0119334 0 0 0 0 
0.0119334 -0.000455895 0 -0.000455895 -0.0106525 0 0 0 0 
0.0119334 -0.000455895 0 -0.000455895 -0.0106525 0 0 0 0 
0.0119334 -0.000455895 0 -0.000455895 -0.0106525 0 0 0 0 
0.0119334 -0.000455895 0 -0.000455895 -0.0106525 0 0 0 0 
-0.0106525 0.000455895 0 0.000455895 0.0119334 0 0 0 0 
-0.0106525 0.000455895 0 0.000455895 0.0119334 0 0 0 0 
-0.0106525 0.000455895 0 0.000455895 0.0119334 0 0 0 0 
-0.0106525 0.000455895 0 0.000455895 0.0119334 0 0 0 0 
0.0133657 -0.0189064 0 -0.0189064 -0.017064 0 0 0 0 
0.0133657 -0.0189064 0 -0.0189064 -0.017064 0 0 0 0 
0.0133657 -0.0189064 0 -0.0189064 -0.017064 0 0 0 0 
0.0133657 -0.0189064 0 -0.0189064 -0.017064 0 0 0 0 
-0.017064 0.0189064 0 0.0189064 0.0133657 0 0 0 0 
-0.017064 0.0189064 0 0.0189064 0.0133657 0 0 0 0 
-0.017064 0.0189064 0 0.0189064 0.0133657 0 0 0 0 
-0.017064 0.0189064 0 0.0189064 0.0133657 0 0 0 0 
-0.017064 0.0189064 0 0.0189064 0.0133657 0 0 0 0 
-0.017064 0.0189064 0 0.0189064 0.0133657 0 0 0 0 
-0.017064 0.0189064 0 0.0189064 0.0133657 0 0 0 0 
-0.017064 0.0189064 0 0.0189064 0.0133657 0 0 0 0 
0.0133657 -0.0189064 0 -0.0189064 -0.017064 0 0 0 0 
0.0133657 -0.0189064 0 -0.0189064 -0.017064 0 0 0 0 
0.0133657 -0.0189064 0 -0.0189064 -0.017064 0 0 0 0 
0.0133657 -0.0189064 0 -0.0189064 -0.017064 0 0 0 0 
0.022741 -0.00180765 0 -0.00180765 -0.0259786 0 0 0 0 
0.022741 -0.00180765 0 -0.00180765 -0.0259786 0 0 0 0 
0.022741 -0.00180765 0 -0.00180765 -0.0259786 0 0 0 0 
0.022741 -0.00180765 0 -0.00180765 -0.0259786 0 0 0 0 
-0.0259786 0.00180765 0 0.00180765 0.022741 0 0 0 0 
-0.0259786 0.00180765 0 0.00180765 0.022741 0 0 0 0 
-0.0259786 0.00180765 0 0.00180765 0.022741 0 0 0 0 
-0.0259786 0.00180765 0 0.00180765 0.022741 0 0 0 0 
0.022741 -0.00180765 0 -0.00180765 -0.0259786 0 0 0 0 
0.022741 -0.00180765 0 -0.00180765 -0.0259786 0 0 0 0 
0.022741 -0.00180765 0 -0.00180765 -0.0259786 0 0 0 0 
0.022741 -0.00180765 0 -0.00180765 -0.0259786 0 0 0 0 
-0.0259786 0.00180765 0 0.00180765 0.022741 0 0 0 0 
-0.0259786 0.00180765 0 0.00180765 0.022741 0 0 0 0 
-0.0259786 0.00180765 0 0.00180765 0.022741 0 0 0 0 
-0.0259786 0.00180765 0 0.00180765 0.022741 0 0 0 0 
0.0016306 -0.00341292 0 -0.00341292 -0.00261932 0 0 0 0 
0.0016306 -0.00341292 0 -0.00341292 -0.00261932 0 0 0 0 
0.0016306 -0.00341292 0 -0.00341292 -0.00261932 0 0 0 0 
0.0016306 -0.00341292 0 -0.00341292 -0.00261932 0 0 0 0 
-0.00261932 0.00341292 0 0.00341292 0.0016306 0 0 0 0 
-0.00261932 0.00341292 0 0.00341292 0.0016306 0 0 0 0 
-0.00261932 0.00341292 0 0.00341292 0.0016306 0 0 0 0 
-0.00261932 0.00341292 0 0.00341292 0.0016306 0 0 0 0 
-0.00261932 0.00341292 0 0.00341292 0.0016306 0 0 0 0 
-0.00261932 0.00341292 0 0.00341292 0.0016306 0 0 0 0 
-0.00261932 0.00341292 0 0.00341292 0.0016306 0 0 0 0 
-0.00261932 0.00341292 0 0.00341292 0.0016306 0 0 0 0 
0.0016306 -0.00341292 0 -0.00341292 -0.00261932 0 0 0 0 
0.0016306 -0.00341292 0 -0.00341292 -0.00261932 0 0 0 0 
0.0016306 -0.00341292 0 -0.00341292 -0.00261932 0 0 0 0 
0.0016306 -0.00341292 0 -0.00341292 -0.00261932 0 0 0 0 
-0.00626259 -0.0055911 0 -0.0055911 0.00435082 0 0 0 0 
-0.00626259 -0.0055911 0 -0.0055911 0.00435082 0 0 0 0 
-0.00626259 -0.0055911 0 -0.0055911 0.00435082 0 0 0 0 
-0.00626259 -0.0055911 0 -0.0055911 0.00435082 0 0 0 0 
0.00435082 0.0055911 0 0.0055911 -0.00626259 0 0 0 0 
0.00435082 0.0055911 0 0.0055911 -0.00626259 0 0 0 0 
0.00435082 0.0055911 0 0.0055911 -0.00626259 0 0 0 0 
0.00435082 0.0055911 0 0.0055911 -0.00626259 0 0 0 0 
-0.00626259 -0.0055911 0 -0.0055911 0.00435082 0 0 0 0 
-0.00626259 -0.0055911 0 -0.0055911 0.00435082 0 0 0 0 
-0.00626259 -0.0055911 0 -0.0055911 0.00435082 0 0 0 0 
-0.00626259 -0.0055911 0 -0.0055911 0.00435082 0 0 0 0 
0.00435082 0.0055911 0 0.0055911 -0.00626259 0 0 0 0 
0.00435082 0.0055911 0 0.0055911 -0.00626259 0 0 0 0 
0.00435082 0.0055911 0 0.0055911 -0.00626259 0 0 0 0 
0.00435082 0.0055911 0 0.0055911 -0.00626259 0 0 0 0 
-0.00302565 -0.00652882 0 -0.00652882 0.00107813 0 0 0 0 
-0.00302565 -0.00652882 0 -0.00652882 0.00107813 0 0 0 0 
-0.00302565 -0.00652882 0 -0.00652882 0.00107813 0 0 0 0 
-0.00302565 -0.00652882 0 -0.00652882 0.00107813 0 0 0 0 
-0.00302565 -0.00652882 0 -0.00652882 0.00107813 0 0 0 0 
-0.00302565 -0.00652882 0 -0.00652882 0.00107813 0 0 0 0 
-0.00302565 -0.00652882 0 -0.00652882 0.00107813 0 0 0 0 
-0.00302565 -0.00652882 0 -0.00652882 0.00107813 0 0 0 0 
0.00107813 0.00652882 0 0.00652882 -0.00302565 0 0 0 0 
0.00107813 0.00652882 0 0.00652882 -0.00302565 0 0 0 0 
0.00107813 0.00652882 0 0.00652882 -0.00302565 0 0 0 0 
0.00107813 0.00652882 0 0.00652882 -0.00302565 0 0 0 0 
0.00107813 0.00652882 0 0.00652882 -0.00302565 0 0 0 0 
0.00107813 0.00652882 0 0.00652882 -0.00302565 0 0 0 0 
0.00107813 0.00652882 0 0.00652882 -0.00302565 0 0 0 0 
0.00107813 0.00652882 0 0.00652882 -0.00302565 0 0 0 0 
-0.0410877 0.0872653 0 0.0872653 0.0101687 0 0 0 0 
-0.0410877 0.0872653 0 0.0872653 0.0101687 0 0 0 0 
-0.0410877 0.0872653 0 0.0872653 0.0101687 0 0 0 0 
-0.0410877 0.0872653 0 0.0872653 0.0101687 0 0 0 0 
0.0101687 -0.0872653 0 -0.0872653 -0.0410877 0 0 0 0 
0.0101687 -0.0872653 0 -0.0872653 -0.0410877 0 0 0 0 
0.0101687 -0.0872653 0 -0.0872653 -0.0410877 0 0 0 0 
0.0101687 -0.0872653 0 -0.0872653 -0.0410877 0 0 0 0 
-0.0410877 0.0872653 0 0.0872653 0.0101687 0 0 0 0 
-0.0410877 0.0872653 0 0.0872653 0.0101687 0 0 0 0 
-0.0410877 0.0872653 0 0.0872653 0.0101687 0 0 0 0 
-0.0410877 0.0872653 0 0.0872653 0.0101687 0 0 0 0 
0.0101687 -0.0872653 0 -0.0872653 -0.0410877 0 0 0 0 
0.0101687 -0.0872653 0 -0.0872653 -0.0410877 0 0 0 0 
0.0101687 -0.0872653 0 -0.0872653 -0.0410877 0 0 0 0 
0.0101687 -0.0872653 0 -0.0872653 -0.0410877 0 0 0 0 
-0.0554758 0.0111103 0 0.0111103 0.0301613 0 0 0 0 
-0.0554758 0.0111103 0 0.0111103 0.0301613 0 0 0 0 
-0.0554758 0.0111103 0 0.0111103 0.0301613 0 0 0 0 
-0.0554758 0.0111103 0 0.0111103 0.0301613 0 0 0 0 
0.0301613 -0.0111103 0 -0.0111103 -0.0554758 0 0 0 0 
0.0301613 -0.0111103 0 -0.0111103 -0.0554758 0 0 0 0 
0.0301613 -0.0111103 0 -0.0111103 -0.0554758 0 0 0 0 
0.0301613 -0.0111103 0 -0.0111103 -0.0554758 0 0 0 0 
0.0301613 -0.0111103 0 -0.0111103 -0.0554758 0 0 0 0 
0.0301613 -0.0111103 0 -0.0111103 -0.0554758 0 0 0 0 
0.0301613 -0.0111103 0 -0.0111103 -0.0554758 0 0 0 0 
0.0301613 -0.0111103 0 -0.0111103 -0.0554758 0 0 0 0 
-0.0554758 0.0111103 0 0.0111103 0.0301613 0 0 0 0 
-0.0554758 0.0111103 0 0.0111103 0.0301613 0 0 0 0 
-0.0554758 0.0111103 0 0.0111103 0.0301613 0 0 0 0 
-0.0554758 0.0111103 0 0.0111103 0.0301613 0 0 0 0 
0.0577223 0.033618 0 0.033618 -0.0895249 0 0 0 0 
0.0577223 0.033618 0 0.033618 -0.0895249 0 0 0 0 
0.0577223 0.033618 0 0.033618 -0.0895249 0 0 0 0 
0.0577223 0.033618 0 0.033618 -0.0895249 0 0 0 0 
-0.0895249 -0.033618 0 -0.033618 0.0577223 0 0 0 0 
-0.0895249 -0.033618 0 -0.033618 0.0577223 0 0 0 0 
-0.0895249 -0.033618 0 -0.033618 0.0577223 0 0 0 0 
-0.0895249 -0.033618 0 -0.033618 0.0577223 0 0 0 0 
-0.0895249 -0.033618 0 -0.033618 0.0577223 0 0 0 0 
-0.0895249 -0.033618 0 -0.033618 0.0577223 0 0 0 0 
-0.0895249 -0.033618 0 -0.033618 0.0577223 0 0 0 0 
-0.0895249 -0.033618 0 -0.033618 0.0577223 0 0 0 0 
0.0577223 0.033618 0 0.033618 -0.0895249 0 0 0 0 
0.0577223 0.033618 0 0.033618 -0.0895249 0 0 0 0 
0.0577223 0.033618 0 0.033618 -0.0895249 0 0 0 0 
0.0577223 0.033618 0 0.033618 -0.0895249 0 0 0 0 
0.00952629 0.0556735 0 0.0556735 -0.039262 0 0 0 0 
0.00952629 0.0556735 0 0.0556735 -0.039262 0 0 0 0 
0.00952629 0.0556735 0 0.0556735 -0.039262 0 0 0 0 
0.00952629 0.0556735 0 0.0556735 -0.039262 0 0 0 0 
-0.039262 -0.0556735 0 -0.0556735 0.00952629 0 0 0 0 
-0.039262 -0.0556735 0 -0.0556735 0.00952629 0 0 0 0 
-0.039262 -0.0556735 0 -0.0556735 0.00952629 0 0 0 0 
-0.039262 -0.0556735 0 -0.0556735 0.00952629 0 0 0 0 
-0.039262 -0.0556735 0 -0.0556735 0.00952629 0 0 0 0 
-0.039262 -0.0556735 0 -0.0556735 0.00952629 0 0 0 0 
-0.039262 -0.0556735 0 -0.0556735 0.00952629 0 0 0 0 
-0.039262 -0.0556735 0 -0.0556735 0.00952629 0 0 0 0 
0.00952629 0.0556735 0 0.0556735 -0.039262 0 0 0 0 
0.00952629 0.0556735 0 0.0556735 -0.039262 0 0 0 0 
0.00952629 0.0556735 0 0.0556735 -0.039262 0 0 0 0 
0.00952629 0.0556735 0 0.0556735 -0.039262 0 0 0 0 
0.120998 -0.0107153 0 -0.0107153 -0.0584874 0 0 0 0 
0.120998 -0.0107153 0 -0.0107153 -0.0584874 0 0 0 0 
0.120998 -0.0107153 0 -0.0107153 -0.0584874 0 0 0 0 
0.120998 -0.0107153 0 -0.0107153 -0.0584874 0 0 0 0 
-0.0584874 0.0107153 0 0.0107153 0.120998 0 0 0 0 
-0.0584874 0.0107153 0 0.0107153 0.120998 0 0 0 0 
-0.0584874 0.0107153 0 0.0107153 0.120998 0 0 0 0 
-0.0584874 0.0107153 0 0.0107153 0.120998 0 0 0 0 
-0.0584874 0.0107153 0 0.0107153 0.120998 0 0 0 0 
-0.0584874 0.0107153 0 0.0107153 0.120998 0 0 0 0 
-0.0584874 0.0107153 0 0.0107153 0.120998 0 0 0 0 
-0.0584874 0.0107153 0 0.0107153 0.120998 0 0 0 0 
0.120998 -0.0107153 0 -0.0107153 -0.0584874 0 0 0 0 
0.120998 -0.0107153 0 -0.0107153 -0.0584874 0 0 0 0 
0.120998 -0.0107153 0 -0.0107153 -0.0584874 0 0 0 0 
0.120998 -0.0107153 0 -0.0107153 -0.0584874 0 0 0 0 
0.00974531 -0.0941507 0 -0.0941507 0.0390957 0 0 0 0 
0.00974531 -0.0941507 0 -0.0941507 0.0390957 0 0 0 0 
0.00974531 -0.0941507 0 -0.0941507 0.0390957 0 0 0 0 
0.00974531 -0.0941507 0 -0.0941507 0.0390957 0 0 0 0 
0.0390957 0.0941507 0 0.0941507 0.00974531 0 0 0 0 
0.0390957 0.0941507 0 0.0941507 0.00974531 0 0 0 0 
0.0390957 0.0941507 0 0.0941507 0.00974531 0 0 0 0 
0.0390957 0.0941507 0 0.0941507 0.00974531 0 0 0 0 
0.00974531 -0.0941507 0 -0.0941507 0.0390957 0 0 0 0 
0.00974531 -0.0941507 0 -0.0941507 0.0390957 0 0 0 0 
0.00974531 -0.0941507 0 -0.0941507 0.0390957 0 0 0 0 
0.00974531 -0.0941507 0 -0.0941507 0.0390957 0 0 0 0 
0.0390957 0.0941507 0 0.0941507 0.00974531 0 0 0 0 
0.0390957 0.0941507 0 0.0941507 0.00974531 0 0 0 0 
0.0390957 0.0941507 0 0.0941507 0.00974531 0 0 0 0 
0.0390957 0.0941507 0 0.0941507 0.00974531 0 0 0 0 
0.0118022 -7.91945e-05 0 -7.91945e-05 -0.0113073 0 0 0 0 
0.0118022 -7.91945e-05 0 -7.91945e-05 -0.0113073 0 0 0 0 
0.0118022 -7.91945e-05 0 -7.91945e-05 -0.0113073 0 0 0 0 
0.0118022 -7.91945e-05 0 -7.91945e-05 -0.0113073 0 0 0 0 
-0.0113073 7.91945e-05 0 7.91945e-05 0.0118022 0 0 0 0 
-0.0113073 7.91945e-05 0 7.91945e-05 0.0118022 0 0 0 0 
-0.0113073 7.91945e-05 0 7.91945e-05 0.0118022 0 0 0 0 
-0.0113073 7.91945e-05 0 7.91945e-05 0.0118022 0 0 0 0 
-0.0113073 7.91945e-05 0 7.91945e-05 0.0118022 0 0 0 0 
-0.0113073 7.91945e-05 0 7.91945e-05 0.0118022 0 0 0 0 
-0.0113073 7.91945e-05 0 7.91945e-05 0.0118022 0 0 0 0 
-0.0113073 7.91945e-05 0 7.91945e-05 0.0118022 0 0 0 0 
0.0118022 -7.91945e-05 0 -7.91945e-05 -0.0113073 0 0 0 0 
0.0118022 -7.91945e-05 0 -7.91945e-05 -0.0113073 0 0 0 0 
0.0118022 -7.91945e-05 0 -7.91945e-05 -0.0113073 0 0 0 0 
0.0118022 -7.91945e-05 0 -7.91945e-05 -0.0113073 0 0 0 0 
0.0038108 -0.00332776 0 -0.00332776 -0.00345677 0 0 0 0 
0.0038108 -0.00332776 0 -0.00332776 -0.00345677 0 0 0 0 
0.0038108 -0.00332776 0 -0.00332776 -0.00345677 0 0 0 0 
0.0038108 -0.00332776 0 -0.00332776 -0.00345677 0 0 0 0 
-0.00345677 0.00332776 0 0.00332776 0.0038108 0 0 0 0 
-0.00345677 0.00332776 0 0.00332776 0.0038108 0 0 0 0 
-0.00345677 0.00332776 0 0.00332776 0.0038108 0 0 0 0 
-0.00345677 0.00332776 0 0.00332776 0.0038108 0 0 0 0 
0.0038108 -0.00332776 0 -0.00332776 -0.00345677 0 0 0 0 
0.0038108 -0.00332776 0 -0.00332776 -0.00345677 0 0 0 0 
0.0038108 -0.00332776 0 -0.00332776 -0.00345677 0 0 0 0 
0.0038108 -0.00332776 0 -0.00332776 -0.00345677 0 0 0 0 
-0.00345677 0.00332776 0 0.00332776 0.0038108 0 0 0 0 
-0.00345677 0.00332776 0 0.00332776 0.0038108 0 0 0 0 
-0.00345677 0.00332776 0 0.00332776 0.0038108 0 0 0 0 
-0.00345677 0.00332776 0 0.00332776 0.0038108 0 0 0 0 
0.00432867 -0.00296287 0 -0.00296287 -0.00388774 0 0 0 0 
0.00432867 -0.00296287 0 -0.00296287 -0.00388774 0 0 0 0 
0.00432867 -0.00296287 0 -0.00296287 -0.00388774 0 0 0 0 
0.00432867 -0.00296287 0 -0.00296287 -0.00388774 0 0 0 0 
-0.00388774 0.00296287 0 0.00296287 0.00432867 0 0 0 0 
-0.00388774 0.00296287 0 0.00296287 0.00432867 0 0 0 0 
-0.00388774 0.00296287 0 0.00296287 0.00432867 0 0 0 0 
-0.00388774 0.00296287 0 0.00296287 0.00432867 0 0 0 0 
-0.00388774 0.00296287 0 0.00296287 0.00432867 0 0 0 0 
-0.00388774 0.00296287 0 0.00296287 0.00432867 0 0 0 0 
-0.00388774 0.00296287 0 0.00296287 0.00432867 0 0 0 0 
-0.00388774 0.00296287 0 0.00296287 0.00432867 0 0 0 0 
0.00432867 -0.00296287 0 -0.00296287 -0.00388774 0 0 0 0 
0.00432867 -0.00296287 0 -0.00296287 -0.00388774 0 0 0 0 
0.00432867 -0.00296287 0 -0.00296287 -0.00388774 0 0 0 0 
0.00432867 -0.00296287 0 -0.00296287 -0.00388774 0 0 0 0 
-0.00303767 0.00360398 0 0.00360398 0.000117095 0 0 0 0 
-0.00303767 0.00360398 0 0.00360398 0.000117095 0 0 0 0 
-0.00303767 0.00360398 0 0.00360398 0.000117095 0 0 0 0 
-0.00303767 0.00360398 0 0.00360398 0.000117095 0 0 0 0 
-0.00303767 0.00360398 0 0.00360398 0.000117095 0 0 0 0 
-0.00303767 0.00360398 0 0.00360398 0.000117095 0 0 0 0 
-0.00303767 0.00360398 0 0.00360398 0.000117095 0 0 0 0 
-0.00303767 0.00360398 0 0.00360398 0.000117095 0 0 0 0 
0.000117095 -0.00360398 0 -0.00360398 -0.00303767 0 0 0 0 
0.000117095 -0.00360398 0 -0.00360398 -0.00303767 0 0 0 0 
0.000117095 -0.00360398 0 -0.00360398 -0.00303767 0 0 0 0 
0.000117095 -0.00360398 0 -0.00360398 -0.00303767 0 0 0 0 
0.000117095 -0.00360398 0 -0.00360398 -0.00303767 0 0 0 0 
0.000117095 -0.00360398 0 -0.00360398 -0.00303767 0 0 0 0 
0.000117095 -0.00360398 0 -0.00360398 -0.00303767 0 0 0 0 
0.000117095 -0.00360398 0 -0.00360398 -0.00303767 0 0 0 0 
0.00250398 0.00291587 0 0.00291587 -0.00219295 0 0 0 0 
0.00250398 0.00291587 0 0.00291587 -0.00219295 0 0 0 0 
0.00250398 0.00291587 0 0.00291587 -0.00219295 0 0 0 0 
0.00250398 0.00291587 0 0.00291587 -0.00219295 0 0 0 0 
-0.00219295 -0.00291587 0 -0.00291587 0.00250398 0 0 0 0 
-0.00219295 -0.00291587 0 -0.00291587 0.00250398 0 0 0 0 
-0.00219295 -0.00291587 0 -0.00291587 0.00250398 0 0 0 0 
-0.00219295 -0.00291587 0 -0.00291587 0.00250398 0 0 0 0 
0.00250398 0.00291587 0 0.00291587 -0.00219295 0 0 0 0 
0.00250398 0.00291587 0 0.00291587 -0.00219295 0 0 0 0 
0.00250398 0.00291587 0 0.00291587 -0.00219295 0 0 0 0 
0.00250398 0.00291587 0 0.00291587 -0.00219295 0 0 0 0 
-0.00219295 -0.00291587 0 -0.00291587 0.00250398 0 0 0 0 
-0.00219295 -0.00291587 0 -0.00291587 0.00250398 0 0 0 0 
-0.00219295 -0.00291587 0 -0.00291587 0.00250398 0 0 0 0 
-0.00219295 -0.00291587 0 -0.00291587 0.00250398 0 0 0 0 
0.0036488 -0.00696764 0 -0.00696764 -0.00220833 0 0 0 0 
0.0036488 -0.00696764 0 -0.00696764 -0.00220833 0 0 0 0 
0.0036488 -0.00696764 0 -0.00696764 -0.00220833 0 0 0 0 
0.0036488 -0.00696764 0 -0.00696764 -0.00220833 0 0 0 0 
-0.00220833 0.00696764 0 0.00696764 0.0036488 0 0 0 0 
-0.00220833 0.00696764 0 0.00696764 0.0036488 0 0 0 0 
-0.00220833 0.00696764 0 0.00696764 0.0036488 0 0 0 0 
-0.00220833 0.00696764 0 0.00696764 0.0036488 0 0 0 0 
0.0036488 -0.00696764 0 -0.00696764 -0.00220833 0 0 0 0 
0.0036488 -0.00696764 0 -0.00696764 -0.00220833 0 0 0 0 
0.0036488 -0.00696764 0 -0.00696764 -0.00220833 0 0 0 0 
0.0036488 -0.00696764 0 -0.00696764 -0.00220833 0 0 0 0 
-0.00220833 0.00696764 0 0.00696764 0.0036488 0 0 0 0 
-0.00220833 0.00696764 0 0.00696764 0.0036488 0 0 0 0 
-0.00220833 0.00696764 0 0.00696764 0.0036488 0 0 0 0 
-0.00220833 0.00696764 0 0.00696764 0.0036488 0 0 0 0 
0.00823582 0.00205502 0 0.00205502 -0.00987424 0 0 0 0 
0.00823582 0.00205502 0 0.00205502 -0.00987424 0 0 0 0 
0.00823582 0.00205502 0 0.00205502 -0.00987424 0 0 0 0 
0.00823582 0.00205502 0 0.00205502 -0.00987424 0 0 0 0 
-0.00987424 -0.00205502 0 -0.00205502 0.00823582 0 0 0 0 
-0.00987424 -0.00205502 0 -0.00205502 0.00823582 0 0 0 0 
-0.00987424 -0.00205502 0 -0.00205502 0.00823582 0 0 0 0 
-0.00987424 -0.00205502 0 -0.00205502 0.00823582 0 0 0 0 
-0.00987424 -0.00205502 0 -0.00205502 0.00823582 0 0 0 0 
-0.00987424 -0.00205502 0 -0.00205502 0.00823582 0 0 0 0 
-0.00987424 -0.00205502 0 -0.00205502 0.00823582 0 0 0 0 
-0.00987424 -0.00205502 0 -0.00205502 0.00823582 0 0 0 0 
0.00823582 0.00205502 0 0.00205502 -0.00987424 0 0 0 0 
0.00823582 0.00205502 0 0.00205502 -0.00987424 0 0 0 0 
0.00823582 0.00205502 0 0.00205502 -0.00987424 0 0 0 0 
0.00823582 0.00205502 0 0.00205502 -0.00987424 0 0 0 0 
0.000257317 -0.00468249 0 -0.00468249 0.00207712 0 0 0 0 
0.000257317 -0.00468249 0 -0.00468249 0.00207712 0 0 0 0 
0.000257317 -0.00468249 0 -0.00468249 0.00207712 0 0 0 0 
0.000257317 -0.00468249 0 -0.00468249 0.00207712 0 0 0 0 
0.000257317 -0.00468249 0 -0.00468249 0.00207712 0 0 0 0 
0.000257317 -0.00468249 0 -0.00468249 0.00207712 0 0 0 0 
0.000257317 -0.00468249 0 -0.00468249 0.00207712 0 0 0 0 
0.000257317 -0.00468249 0 -0.00468249 0.00207712 0 0 0 0 
0.00207712 0.00468249 0 0.00468249 0.000257317 0 0 0 0 
0.00207712 0.00468249 0 0.00468249 0.000257317 0 0 0 0 
0.00207712 0.00468249 0 0.00468249 0.000257317 0 0 0 0 
0.00207712 0.00468249 0 0.00468249 0.000257317 0 0 0 0 
0.00207712 0.00468249 0 0.00468249 0.000257317 0 0 0 0 
0.00207712 0.00468249 0 0.00468249 0.000257317 0 0 0 0 
0.00207712 0.00468249 0 0.00468249 0.000257317 0 0 0 0 
0.00207712 0.00468249 0 0.00468249 0.000257317 0 0 0 0 
0.0133148 -0.0185355 0 -0.0185355 -0.0180063 0 0 0 0 
0.0133148 -0.0185355 0 -0.0185355 -0.0180063 0 0 0 0 
0.0133148 -0.0185355 0 -0.0185355 -0.0180063 0 0 0 0 
0.0133148 -0.0185355 0 -0.0185355 -0.0180063 0 0 0 0 
-0.0180063 0.0185355 0 0.0185355 0.0133148 0 0 0 0 
-0.0180063 0.0185355 0 0.0185355 0.0133148 0 0 0 0 
-0.0180063 0.0185355 0 0.0185355 0.0133148 0 0 0 0 
-0.0180063 0.0185355 0 0.0185355 0.0133148 0 0 0 0 
-0.0180063 0.0185355 0 0.0185355 0.0133148 0 0 0 0 
-0.0180063 0.0185355 0 0.0185355 0.0133148 0 0 0 0 
-0.0180063 0.0185355 0 0.0185355 0.0133148 0 0 0 0 
-0.0180063 0.0185355 0 0.0185355 0.0133148 0 0 0 0 
0.0133148 -0.0185355 0 -0.0185355 -0.0180063 0 0 0 0 
0.0133148 -0.0185355 0 -0.0185355 -0.0180063 0 0 0 0 
0.0133148 -0.0185355 0 -0.0185355 -0.0180063 0 0 0 0 
0.0133148 -0.0185355 0 -0.0185355 -0.0180063 0 0 0 0 
0.00645392 -0.0245088 0 -0.0245088 -0.00646396 0 0 0 0 
0.00645392 -0.0245088 0 -0.0245088 -0.00646396 0 0 0 0 
0.00645392 -0.0245088 0 -0.0245088 -0.00646396 0 0 0 0 
0.00645392 -0.0245088 0 -0.0245088 -0.00646396 0 0 0 0 
-0.00646396 0.0245088 0 0.0245088 0.00645392 0 0 0 0 
-0.00646396 0.0245088 0 0.0245088 0.00645392 0 0 0 0 
-0.00646396 0.0245088 0 0.0245088 0.00645392 0 0 0 0 
-0.00646396 0.0245088 0 0.0245088 0.00645392 0 0 0 0 
-0.00646396 0.0245088 0 0.0245088 0.00645392 0 0 0 0 
-0.00646396 0.0245088 0 0.0245088 0.00645392 0 0 0 0 
-0.00646396 0.0245088 0 0.0245088 0.00645392 0 0 0 0 
-0.00646396 0.0245088 0 0.0245088 0.00645392 0 0 0 0 
0.00645392 -0.0245088 0 -0.0245088 -0.00646396 0 0 0 0 
0.00645392 -0.0245088 0 -0.0245088 -0.00646396 0 0 0 0 
0.00645392 -0.0245088 0 -0.0245088 -0.00646396 0 0 0 0 
0.00645392 -0.0245088 0 -0.0245088 -0.00646396 0 0 0 0 
-0.0273064 -0.00515212 0 -0.00515212 0.0300784 0 0 0 0 
-0.0273064 -0.00515212 0 -0.00515212 0.0300784 0 0 0 0 
-0.0273064 -0.00515212 0 -0.00515212 0.0300784 0 0 0 0 
-0.0273064 -0.00515212 0 -0.00515212 0.0300784 0 0 0 0 
0.0300784 0.00515212 0 0.00515212 -0.0273064 0 0 0 0 
0.0300784 0.00515212 0 0.00515212 -0.0273064 0 0 0 0 
0.0300784 0.00515212 0 0.00515212 -0.0273064 0 0 0 0 
0.0300784 0.00515212 0 0.00515212 -0.0273064 0 0 0 0 
-0.0273064 -0.00515212 0 -0.00515212 0.0300784 0 0 0 0 
-0.0273064 -0.00515212 0 -0.00515212 0.0300784 0 0 0 0 
-0.0273064 -0.00515212 0 -0.00515212 0.0300784 0 0 0 0 
-0.0273064 -0.00515212 0 -0.00515212 0.0300784 0 0 0 0 
0.0300784 0.00515212 0 0.00515212 -0.0273064 0 0 0 0 
0.0300784 0.00515212 0 0.00515212 -0.0273064 0 0 0 0 
0.0300784 0.00515212 0 0.00515212 -0.0273064 0 0 0 0 
0.0300784 0.00515212 0 0.00515212 -0.0273064 0 0 0 0 
-0.026793 -0.00594973 0 -0.00594973 0.0251956 0 0 0 0 
-0.026793 -0.00594973 0 -0.00594973 0.0251956 0 0 0 0 
-0.026793 -0.00594973 0 -0.00594973 0.0251956 0 0 0 0 
-0.026793 -0.00594973 0 -0.00594973 0.0251956 0 0 0 0 
-0.026793 -0.00594973 0 -0.00594973 0.0251956 0 0 0 0 
-0.026793 -0.00594973 0 -0.00594973 0.0251956 0 0 0 0 
-0.026793 -0.00594973 0 -0.00594973 0.0251956 0 0 0 0 
-0.026793 -0.00594973 0 -0.00594973 0.0251956 0 0 0 0 
0.0251956 0.00594973 0 0.00594973 -0.026793 0 0 0 0 
0.0251956 0.00594973 0 0.00594973 -0.026793 0 0 0 0 
0.0251956 0.00594973 0 0.00594973 -0.026793 0 0 0 0 
0.0251956 0.00594973 0 0.00594973 -0.026793 0 0 0 0 
0.0251956 0.00594973 0 0.00594973 -0.026793 0 0 0 0 
0.0251956 0.00594973 0 0.00594973 -0.026793 0 0 0 0 
0.0251956 0.00594973 0 0.00594973 -0.026793 0 0 0 0 
0.0251956 0.00594973 0 0.00594973 -0.026793 0 0 0 0 
-0.0213135 0.0174996 0 0.0174996 0.0287696 0 0 0 0 
-0.0213135 0.0174996 0 0.0174996 0.0287696 0 0 0 0 
-0.0213135 0.0174996 0 0.0174996 0.0287696 0 0 0 0 
-0.0213135 0.0174996 0 0.0174996 0.0287696 0 0 0 0 
0.0287696 -0.0174996 0 -0.0174996 -0.0213135 0 0 0 0 
0.0287696 -0.0174996 0 -0.0174996 -0.0213135 0 0 0 0 
0.0287696 -0.0174996 0 -0.0174996 -0.0213135 0 0 0 0 
0.0287696 -0.0174996 0 -0.0174996 -0.0213135 0 0 0 0 
-0.0213135 0.0174996 0 0.0174996 0.0287696 0 0 0 0 
-0.0213135 0.0174996 0 0.0174996 0.0287696 0 0 0 0 
-0.0213135 0.0174996 0 0.0174996 0.0287696 0 0 0 0 
-0.0213135 0.0174996 0 0.0174996 0.0287696 0 0 0 0 
0.0287696 -0.0174996 0 -0.0174996 -0.0213135 0 0 0 0 
0.0287696 -0.0174996 0 -0.0174996 -0.0213135 0 0 0 0 
0.0287696 -0.0174996 0 -0.0174996 -0.0213135 0 0 0 0 
0.0287696 -0.0174996 0 -0.0174996 -0.0213135 0 0 0 0 
0.0335212 0.00440188 0 0.00440188 -0.0309978 0 0 0 0 
0.0335212 0.00440188 0 0.00440188 -0.0309978 0 0 0 0 
0.0335212 0.00440188 0 0.00440188 -0.0309978 0 0 0 0 
0.0335212 0.00440188 0 0.00440188 -0.0309978 0 0 0 0 
-0.0309978 -0.00440188 0 -0.00440188 0.0335212 0 0 0 0 
-0.0309978 -0.00440188 0 -0.00440188 0.0335212 0 0 0 0 
-0.0309978 -0.00440188 0 -0.00440188 0.0335212 0 0 0 0 
-0.0309978 -0.00440188 0 -0.00440188 0.0335212 0 0 0 0 
-0.0309978 -0.00440188 0 -0.00440188 0.0335212 0 0 0 0 
-0.0309978 -0.00440188 0 -0.00440188 0.0335212 0 0 0 0 
-0.0309978 -0.00440188 0 -0.00440188 0.0335212 0 0 0 0 
-0.0309978 -0.00440188 0 -0.00440188 0.0335212 0 0 0 0 
0.0335212 0.00440188 0 0.00440188 -0.0309978 0 0 0 0 
0.0335212 0.00440188 0 0.00440188 -0.0309978 0 0 0 0 
0.0335212 0.00440188 0 0.00440188 -0.0309978 0 0 0 0 
0.0335212 0.00440188 0 0.00440188 -0.0309978 0 0 0 0 
-0.00428657 -0.0487433 0 -0.0487433 0.00327087 0 0 0 0 
-0.00428657 -0.0487433 0 -0.0487433 0.00327087 0 0 0 0 
-0.00428657 -0.0487433 0 -0.0487433 0.00327087 0 0 0 0 
-0.00428657 -0.0487433 0 -0.0487433 0.00327087 0 0 0 0 
0.00327087 0.0487433 0 0.0487433 -0.00428657 0 0 0 0 
0.00327087 0.0487433 0 0.0487433 -0.00428657 0 0 0 0 
0.00327087 0.0487433 0 0.0487433 -0.00428657 0 0 0 0 
0.00327087 0.0487433 0 0.0487433 -0.00428657 0 0 0 0 
-0.00428657 -0.0487433 0 -0.0487433 0.00327087 0 0 0 0 
-0.00428657 -0.0487433 0 -0.0487433 0.00327087 0 0 0 0 
-0.00428657 -0.0487433 0 -0.0487433 0.00327087 0 0 0 0 
-0.00428657 -0.0487433 0 -0.0487433 0.00327087 0 0 0 0 
0.00327087 0.0487433 0 0.0487433 -0.00428657 0 0 0 0 
0.00327087 0.0487433 0 0.0487433 -0.00428657 0 0 0 0 
0.00327087 0.0487433 0 0.0487433 -0.00428657 0 0 0 0 
0.00327087 0.0487433 0 0.0487433 -0.00428657 0 0 0 0 
0.0371465 0.0369814 0 0.0369814 -0.0349739 0 0 0 0 
0.0371465 0.0369814 0 0.0369814 -0.0349739 0 0 0 0 
0.0371465 0.0369814 0 0.0369814 -0.0349739 0 0 0 0 
0.0371465 0.0369814 0 0.0369814 -0.0349739 0 0 0 0 
-0.0349739 -0.0369814 0 -0.0369814 0.0371465 0 0 0 0 
-0.0349739 -0.0369814 0 -0.0369814 0.0371465 0 0 0 0 
-0.0349739 -0.0369814 0 -0.0369814 0.0371465 0 0 0 0 
-0.0349739 -0.0369814 0 -0.0369814 0.0371465 0 0 0 0 
0.0371465 0.0369814 0 0.0369814 -0.0349739 0 0 0 0 
0.0371465 0.0369814 0 0.0369814 -0.0349739 0 0 0 0 
0.0371465 0.0369814 0 0.0369814 -0.0349739 0 0 0 0 
0.0371465 0.0369814 0 0.0369814 -0.0349739 0 0 0 0 
-0.0349739 -0.0369814 0 -0.0369814 0.0371465 0 0 0 0 
-0.0349739 -0.0369814 0 -0.0369814 0.0371465 0 0 0 0 
-0.0349739 -0.0369814 0 -0.0369814 0.0371465 0 0 0 0 
-0.0349739 -0.0369814 0 -0.0369814 0.0371465 0 0 0 0 
0.0040428 -0.00383211 0 -0.00383211 -0.00308471 0 0 0 0 
0.0040428 -0.00383211 0 -0.00383211 -0.00308471 0 0 0 0 
0.0040428 -0.00383211 0 -0.00383211 -0.00308471 0 0 0 0 
0.0040428 -0.00383211 0 -0.00383211 -0.00308471 0 0 0 0 
-0.00308471 0.00383211 0 0.00383211 0.0040428 0 0 0 0 
-0.00308471 0.00383211 0 0.00383211 0.0040428 0 0 0 0 
-0.00308471 0.00383211 0 0.00383211 0.0040428 0 0 0 0 
-0.00308471 0.00383211 0 0.00383211 0.0040428 0 0 0 0 
0.0040428 -0.00383211 0 -0.00383211 -0.00308471 0 0 0 0 
0.0040428 -0.00383211 0 -0.00383211 -0.00308471 0 0 0 0 
0.0040428 -0.00383211 0 -0.00383211 -0.00308471 0 0 0 0 
0.0040428 -0.00383211 0 -0.00383211 -0.00308471 0 0 0 0 
-0.00308471 0.00383211 0 0.00383211 0.0040428 0 0 0 0 
-0.00308471 0.00383211 0 0.00383211 0.0040428 0 0 0 0 
-0.00308471 0.00383211 0 0.00383211 0.0040428 0 0 0 0 
-0.00308471 0.00383211 0 0.00383211 0.0040428 0 0 0 0 

TENSORS StrainPlastic float
-0.00014313 0.000110423 0 0.000110423 0.000149578 0 0 0 -6.44762e-06 
-0.00014313 0.000110423 0 0.000110423 0.000149578 0 0 0 -6.44762e-06 
-0.00014313 0.000110423 0 0.000110423 0.000149578 0 0 0 -6.44762e-06 
-0.00014313 0.000110423 0 0.000110423 0.000149578 0 0 0 -6.44762e-06 
-3.82997e-06 0.00046862 0 0.00046862 -1.99766e-05 0 0 0 2.38066e-05 
-3.82997e-06 0.00046862 0 0.00046862 -1.99766e-05 0 0 0 2.38066e-05 
-3.82997e-06 0.00046862 0 0.00046862 -1.99766e-05 0 0 0 2.38066e-05 
-3.82997e-06 0.00046862 0 0.00046862 -1.99766e-05 0 0 0 2.38066e-05 
0.000724653 -0.00010685 0 -0.00010685 -0.000694529 0 0 0 -3.01243e-05 
0.000724653 -0.00010685 0 -0.00010685 -0.000694529 0 0 0 -3.01243e-05 
0.000724653 -0.00010685 0 -0.00010685 -0.000694529 0 0 0 -3.01243e-05 
0.000724653 -0.00010685 0 -0.00010685 -0.000694529 0 0 0 -3.01243e-05 
-0.000141372 -0.000112264 0 -0.000112264 0.000142114 0 0 0 -7.42464e-07 
-0.000141372 -0.000112264 0 -0.000112264 0.000142114 0 0 0 -7.42464e-07 
-0.000141372 -0.000112264 0 -0.000112264 0.000142114 0 0 0 -7.42464e-07 
-0.000141372 -0.000112264 0 -0.000112264 0.000142114 0 0 0 -7.42464e-07 
5.11078e-05 0.000404075 0 0.000404075 -3.9587e-05 0 0 0 -1.15208e-05 
5.11078e-05 0.000404075 0 0.000404075 -3.9587e-05 0 0 0 -1.15208e-05 
5.11078e-05 0.000404075 0 0.000404075 -3.9587e-05 0 0 0 -1.15208e-05 
5.11078e-05 0.000404075 0 0.000404075 -3.9587e-05 0 0 0 -1.15208e-05 
1.1855e-06 -0.000131454 0 -0.000131454 4.32703e-05 0 0 0 -4.44558e-05 
1.1855e-06 -0.000131454 0 -0.000131454 4.32703e-05 0 0 0 -4.44558e-05 
1.1855e-06 -0.000131454 0 -0.000131454 4.32703e-05 0 0 0 -4.44558e-05 
1.1855e-06 -0.000131454 0 -0.000131454 4.32703e-05 0 0 0 -4.44558e-05 
-0.000261847 -0.000412933 0 -0.000412933 0.000229804 0 0 0 3.20432e-05 
-0.000261847 -0.000412933 0 -0.000412933 0.000229804 0 0 0 3.20432e-05 
-0.000261847 -0.000412933 0 -0.000412933 0.000229804 0 0 0 3.20432e-05 
-0.000261847 -0.000412933 0 -0.000412933 0.000229804 0 0 0 3.20432e-05 
0.000959093 -0.000154169 0 -0.000154169 -0.000965332 0 0 0 6.23876e-06 
0.000959093 -0.000154169 0 -0.000154169 -0.000965332 0 0 0 6.23876e-06 
0.000959093 -0.000154169 0 -0.000154169 -0.000965332 0 0 0 6.23876e-06 
0.000959093 -0.000154169 0 -0.000154169 -0.000965332 0 0 0 6.23876e-06 
0.000288654 -0.000148577 0 -0.000148577 -0.000324993 0 0 0 3.63393e-05 
0.000288654 -0.000148577 0 -0.000148577 -0.000324993 0 0 0 3.63393e-05 
0.000288654 -0.000148577 0 -0.000148577 -0.000324993 0 0 0 3.63393e-05 
0.000288654 -0.000148577 0 -0.000148577 -0.000324993 0 0 0 3.63393e-05 
0.000730186 -5.54996e-05 0 -5.54996e-05 -0.00075017 0 0 0 1.99842e-05 
0.000730186 -5.54996e-05 0 -5.54996e-05 -0.00075017 0 0 0 1.99842e-05 
0.000730186 -5.54996e-05 0 -5.54996e-05 -0.00075017 0 0 0 1.99842e-05 
0.000730186 -5.54996e-05 0 -5.54996e-05 -0.00075017 0 0 0 1.99842e-05 
-0.000102739 -0.000190328 0 -0.000190328 0.000114688 0 0 0 -1.19492e-05 
-0.000102739 -0.000190328 0 -0.000190328 0.000114688 0 0 0 -1.19492e-05 
-0.000102739 -0.000190328 0 -0.000190328 0.000114688 0 0 0 -1.19492e-05 
-0.000102739 -0.000190328 0 -0.000190328 0.000114688 0 0 0 -1.19492e-05 
0.000813956 -0.000191193 0 -0.000191193 -0.000895831 0 0 0 8.18748e-05 
0.000813956 -0.000191193 0 -0.000191193 -0.000895831 0 0 0 8.18748e-05 
0.000813956 -0.000191193 0 -0.000191193 -0.000895831 0 0 0 8.18748e-05 
0.000813956 -0.000191193 0 -0.000191193 -0.000895831 0 0 0 8.18748e-05 
0.000573112 -0.000225432 0 -0.000225432 -0.000554472 0 0 0 -1.86395e-05 
0.000573112 -0.000225432 0 -0.000225432 -0.000554472 0 0 0 -1.86395e-05 
0.000573112 -0.000225432 0 -0.000225432 -0.000554472 0 0 0 -1.86395e-05 
0.000573112 -0.000225432 0 -0.000225432 -0.000554472 0 0 0 -1.86395e-05 
0.000484359 -0.000528297 0 -0.000528297 -0.00039597 0 0 0 -8.83891e-05 
0.000484359 -0.000528297 0 -0.000528297 -0.00039597 0 0 0 -8.83891e-05 
0.000484359 -0.000528297 0 -0.000528297 -0.00039597 0 0 0 -8.83891e-05 
0.000484359 -0.000528297 0 -0.000528297 -0.00039597 0 0 0 -8.83891e-05 
0.00010197 0.000401146 0 0.000401146 -0.000115896 0 0 0 1.39257e-05 
0.00010197 0.000401146 0 0.000401146 -0.000115896 0 0 0 1.39257e-05 
0.00010197 0.000401146 0 0.000401146 -0.000115896 0 0 0 1.39257e-05 
0.00010197 0.000401146 0 0.000401146 -0.000115896 0 0 0 1.39257e-05 
-0.000126405 6.19305e-05 0 6.19305e-05 9.29814e-05 0 0 0 3.34235e-05 
-0.000126405 6.19305e-05 0 6.19305e-05 9.29814e-05 0 0 0 3.34235e-05 
-0.000126405 6.19305e-05 0 6.19305e-05 9.29814e-05 0 0 0 3.34235e-05 
-0.000126405 6.19305e-05 0 6.19305e-05 9.29814e-05 0 0 0 3.34235e-05 
-8.44318e-05 0.000386352 0 0.000386352 9.09493e-05 0 0 0 -6.51753e-06 
-8.44318e-05 0.000386352 0 0.000386352 9.09493e-05 0 0 0 -6.51753e-06 
-8.44318e-05 0.000386352 0 0.000386352 9.09493e-05 0 0 0 -6.51753e-06 
-8.44318e-05 0.000386352 0 0.000386352 9.09493e-05 0 0 0 -6.51753e-06 
0.000152376 -1.1725e-05 0 -1.1725e-05 -0.000197366 0 0 0 4.49906e-05 
0.000152376 -1.1725e-05 0 -1.1725e-05 -0.000197366 0 0 0 4.49906e-05 
0.000152376 -1.1725e-05 0 -1.1725e-05 -0.000197366 0 0 0 4.49906e-05 
0.000152376 -1.1725e-05 0 -1.1725e-05 -0.000197366 0 0 0 4.49906e-05 
0.000149578 -0.000110423 0 -0.000110423 -0.00014313 0 0 0 -6.44762e-06 
0.000149578 -0.000110423 0 -0.000110423 -0.00014313 0 0 0 -6.44762e-06 
0.000149578 -0.000110423 0 -0.000110423 -0.00014313 0 0 0 -6.44762e-06 
0.000149578 -0.000110423 0 -0.000110423 -0.00014313 0 0 0 -6.44762e-06 
-1.99766e-05 -0.00046862 0 -0.00046862 -3.82996e-06 0 0 0 2.38066e-05 
-1.99766e-05 -0.00046862 0 -0.00046862 -3.82996e-06 0 0 0 2.38066e-05 
-1.99766e-05 -0.00046862 0 -0.00046862 -3.82996e-06 0 0 0 2.38066e-05 
-1.99766e-05 -0.00046862 0 -0.00046862 -3.82996e-06 0 0 0 2.38066e-05 
-0.000694529 0.00010685 0 0.00010685 0.000724653 0 0 0 -3.01243e-05 
-0.000694529 0.00010685 0 0.00010685 0.000724653 0 0 0 -3.01243e-05 
-0.000694529 0.00010685 0 0.00010685 0.000724653 0 0 0 -3.01243e-05 
-0.000694529 0.00010685 0 0.00010685 0.000724653 0 0 0 -3.01243e-05 
0.000142114 0.000112264 0 0.000112264 -0.000141372 0 0 0 -7.42464e-07 
0.000142114 0.000112264 0 0.000112264 -0.000141372 0 0 0 -7.42464e-07 
0.000142114 0.000112264 0 0.000112264 -0.000141372 0 0 0 -7.42464e-07 
0.000142114 0.000112264 0 0.000112264 -0.000141372 0 0 0 -7.42464e-07 
-3.9587e-05 -0.000404075 0 -0.000404075 5.11078e-05 0 0 0 -1.15208e-05 
-3.9587e-05 -0.000404075 0 -0.000404075 5.11078e-05 0 0 0 -1.15208e-05 
-3.9587e-05 -0.000404075 0 -0.000404075 5.11078e-05 0 0 0 -1.15208e-05 
-3.9587e-05 -0.000404075 0 -0.000404075 5.11078e-05 0 0 0 -1.15208e-05 
4.32703e-05 0.000131454 0 0.000131454 1.1855e-06 0 0 0 -4.44558e-05 
4.32703e-05 0.000131454 0 0.000131454 1.1855e-06 0 0 0 -4.44558e-05 
4.32703e-05 0.000131454 0 0.000131454 1.1855e-06 0 0 0 -4.44558e-05 
4.32703e-05 0.000131454 0 0.000131454 1.1855e-06 0 0 0 -4.44558e-05 
0.000229804 0.000412933 0 0.000412933 -0.000261847 0 0 0 3.20432e-05 
0.000229804 0.000412933 0 0.000412933 -0.000261847 0 0 0 3.20432e-05 
0.000229804 0.000412933 0 0.000412933 -0.000261847 0 0 0 3.20432e-05 
0.000229804 0.000412933 0 0.000412933 -0.000261847 0 0 0 3.20432e-05 
-0.000965332 0.000154169 0 0.000154169 0.000959093 0 0 0 6.23876e-06 
-0.000965332 0.000154169 0 0.000154169 0.000959093 0 0 0 6.23876e-06 
-0.000965332 0.000154169 0 0.000154169 0.000959093 0 0 0 6.23876e-06 
-0.000965332 0.000154169 0 0.000154169 0.000959093 0 0 0 6.23876e-06 
-0.000324993 0.000148577 0 0.000148577 0.000288654 0 0 0 3.63393e-05 
-0.000324993 0.000148577 0 0.000148577 0.000288654 0 0 0 3.63393e-05 
-0.000324993 0.000148577 0 0.000148577 0.000288654 0 0 0 3.63393e-05 
-0.000324993 0.000148577 0 0.000148577 0.000288654 0 0 0 3.63393e-05 
-0.00075017 5.54996e-05 0 5.54996e-05 0.000730186 0 0 0 1.99842e-05 
-0.00075017 5.54996e-05 0 5.54996e-05 0.000730186 0 0 0 1.99842e-05 
-0.00075017 5.54996e-05 0 5.54996e-05 0.000730186 0 0 0 1.99842e-05 
-0.00075017 5.54996e-05 0 5.54996e-05 0.000730186 0 0 0 1.99842e-05 
0.000114688 0.000190328 0 0.000190328 -0.000102739 0 0 0 -1.19492e-05 
0.000114688 0.000190328 0 0.000190328 -0.000102739 0 0 0 -1.19492e-05 
0.000114688 0.000190328 0 0.000190328 -0.000102739 0 0 0 -1.19492e-05 
0.000114688 0.000190328 0 0.000190328 -0.000102739 0 0 0 -1.19492e-05 
-0.000895831 0.000191193 0 0.000191193 0.000813956 0 0 0 8.18748e-05 
-0.000895831 0.000191193 0 0.000191193 0.000813956 0 0 0 8.18748e-05 
-0.000895831 0.000191193 0 0.000191193 0.000813956 0 0 0 8.18748e-05 
-0.000895831 0.000191193 0 0.000191193 0.000813956 0 0 0 8.18748e-05 
-0.000554472 0.000225432 0 0.000225432 0.000573112 0 0 0 -1.86395e-05 
-0.000554472 0.000225432 0 0.000225432 0.000573112 0 0 0 -1.86395e-05 
-0.000554472 0.000225432 0 0.000225432 0.000573112 0 0 0 -1.86395e-05 
-0.000554472 0.000225432 0 0.000225432 0.000573112 0 0 0 -1.86395e-05 
-0.00039597 0.000528297 0 0.000528297 0.000484359 0 0 0 -8.83891e-05 
-0.00039597 0.000528297 0 0.000528297 0.000484359 0 0 0 -8.83891e-05 
-0.00039597 0.000528297 0 0.000528297 0.000484359 0 0 0 -8.83891e-05 
-0.00039597 0.000528297 0 0.000528297 0.000484359 0 0 0 -8.83891e-05 
-0.000115896 -0.000401146 0 -0.000401146 0.00010197 0 0 0 1.39257e-05 
-0.000115896 -0.000401146 0 -0.000401146 0.00010197 0 0 0 1.39257e-05 
-0.000115896 -0.000401146 0 -0.000401146 0.00010197 0 0 0 1.39257e-05 
-0.000115896 -0.000401146 0 -0.000401146 0.00010197 0 0 0 1.39257e-05 
9.29814e-05 -6.19305e-05 0 -6.19305e-05 -0.000126405 0 0 0 3.34235e-05 
9.29814e-05 -6.19305e-05 0 -6.19305e-05 -0.000126405 0 0 0 3.34235e-05 
9.29814e-05 -6.19305e-05 0 -6.19305e-05 -0.000126405 0 0 0 3.34235e-05 
9.29814e-05 -6.19305e-05 0 -6.19305e-05 -0.000126405 0 0 0 3.34235e-05 
9.09493e-05 -0.000386352 0 -0.000386352 -8.44318e-05 0 0 0 -6.51753e-06 
9.09493e-05 -0.000386352 0 -0.000386352 -8.44318e-05 0 0 0 -6.51753e-06 
9.09493e-05 -0.000386352 0 -0.000386352 -8.44318e-05 0 0 0 -6.51753e-06 
9.09493e-05 -0.000386352 0 -0.000386352 -8.44318e-05 0 0 0 -6.51753e-06 
-0.000197366 1.1725e-05 0 1.1725e-05 0.000152376 0 0 0 4.49906e-05 
-0.000197366 1.1725e-05 0 1.1725e-05 0.000152376 0 0 0 4.49906e-05 
-0.000197366 1.1725e-05 0 1.1725e-05 0.000152376 0 0 0 4.49906e-05 
-0.000197366 1.1725e-05 0 1.1725e-05 0.000152376 0 0 0 4.49906e-05 
-0.00014313 0.000110423 0 0.000110423 0.000149578 0 0 0 -6.44762e-06 
-0.00014313 0.000110423 0 0.000110423 0.000149578 0 0 0 -6.44762e-06 
-0.00014313 0.000110423 0 0.000110423 0.000149578 0 0 0 -6.44762e-06 
-0.00014313 0.000110423 0 0.000110423 0.000149578 0 0 0 -6.44762e-06 
-3.82997e-06 0.00046862 0 0.00046862 -1.99766e-05 0 0 0 2.38066e-05 
-3.82997e-06 0.00046862 0 0.00046862 -1.99766e-05 0 0 0 2.38066e-05 
-3.82997e-06 0.00046862 0 0.00046862 -1.99766e-05 0 0 0 2.38066e-05 
-3.82997e-06 0.00046862 0 0.00046862 -1.99766e-05 0 0 0 2.38066e-05 
0.000724653 -0.00010685 0 -0.00010685 -0.000694529 0 0 0 -3.01242e-05 
0.000724653 -0.00010685 0 -0.00010685 -0.000694529 0 0 0 -3.01242e-05 
0.000724653 -0.00010685 0 -0.00010685 -0.000694529 0 0 0 -3.01242e-05 
0.000724653 -0.00010685 0 -0.00010685 -0.000694529 0 0 0 -3.01242e-05 
-0.000141372 -0.000112264 0 -0.000112264 0.000142114 0 0 0 -7.42464e-07 
-0.000141372 -0.000112264 0 -0.000112264 0.000142114 0 0 0 -7.42464e-07 
-0.000141372 -0.000112264 0 -0.000112264 0.000142114 0 0 0 -7.42464e-07 
-0.000141372 -0.000112264 0 -0.000112264 0.000142114 0 0 0 -7.42464e-07 
5.11078e-05 0.000404075 0 0.000404075 -3.9587e-05 0 0 0 -1.15208e-05 
5.11078e-05 0.000404075 0 0.000404075 -3.9587e-05 0 0 0 -1.15208e-05 
5.11078e-05 0.000404075 0 0.000404075 -3.9587e-05 0 0 0 -1.15208e-05 
5.11078e-05 0.000404075 0 0.000404075 -3.9587e-05 0 0 0 -1.15208e-05 
1.1855e-06 -0.000131454 0 -0.000131454 4.32703e-05 0 0 0 -4.44558e-05 
1.1855e-06 -0.000131454 0 -0.000131454 4.32703e-05 0 0 0 -4.44558e-05 
1.1855e-06 -0.000131454 0 -0.000131454 4.32703e-05 0 0 0 -4.44558e-05 
1.1855e-06 -0.000131454 0 -0.000131454 4.32703e-05 0 0 0 -4.44558e-05 
-0.000261847 -0.000412933 0 -0.000412933 0.000229804 0 0 0 3.20432e-05 
-0.000261847 -0.000412933 0 -0.000412933 0.000229804 0 0 0 3.20432e-05 
-0.000261847 -0.000412933 0 -0.000412933 0.000229804 0 0 0 3.20432e-05 
-0.000261847 -0.000412933 0 -0.000412933 0.000229804 0 0 0 3.20432e-05 
0.000959093 -0.000154169 0 -0.000154169 -0.000965332 0 0 0 6.23876e-06 
0.000959093 -0.000154169 0 -0.000154169 -0.000965332 0 0 0 6.23876e-06 
0.000959093 -0.000154169 0 -0.000154169 -0.000965332 0 0 0 6.23876e-06 
0.000959093 -0.000154169 0 -0.000154169 -0.000965332 0 0 0 6.23876e-06 
0.000288654 -0.000148577 0 -0.000148577 -0.000324993 0 0 0 3.63393e-05 
0.000288654 -0.000148577 0 -0.000148577 -0.000324993 0 0 0 3.63393e-05 
0.000288654 -0.000148577 0 -0.000148577 -0.000324993 0 0 0 3.63393e-05 
0.000288654 -0.000148577 0 -0.000148577 -0.000324993 0 0 0 3.63393e-05 
0.000730186 -5.54996e-05 0 -5.54996e-05 -0.00075017 0 0 0 1.99842e-05 
0.000730186 -5.54996e-05 0 -5.54996e-05 -0.00075017 0 0 0 1.99842e-05 
0.000730186 -5.54996e-05 0 -5.54996e-05 -0.00075017 0 0 0 1.99842e-05 
0.000730186 -5.54996e-05 0 -5.54996e-05 -0.00075017 0 0 0 1.99842e-05 
-0.000102739 -0.000190328 0 -0.000190328 0.000114688 0 0 0 -1.19492e-05 
-0.000102739 -0.000190328 0 -0.000190328 0.000114688 0 0 0 -1.19492e-05 
-0.000102739 -0.000190328 0 -0.000190328 0.000114688 0 0 0 -1.19492e-05 
-0.000102739 -0.000190328 0 -0.000190328 0.000114688 0 0 0 -1.19492e-05 
0.000813956 -0.000191193 0 -0.000191193 -0.000895831 0 0 0 8.18748e-05 
0.000813956 -0.000191193 0 -0.000191193 -0.000895831 0 0 0 8.18748e-05 
0.000813956 -0.000191193 0 -0.000191193 -0.000895831 0 0 0 8.18748e-05 
0.000813956 -0.000191193 0 -0.000191193 -0.000895831 0 0 0 8.18748e-05 
0.000573112 -0.000225432 0 -0.000225432 -0.000554472 0 0 0 -1.86395e-05 
0.000573112 -0.000225432 0 -0.000225432 -0.000554472 0 0 0 -1.86395e-05 
0.000573112 -0.000225432 0 -0.000225432 -0.000554472 0 0 0 -1.86395e-05 
0.000573112 -0.000225432 0 -0.000225432 -0.000554472 0 0 0 -1.86395e-05 
0.000484359 -0.000528297 0 -0.000528297 -0.00039597 0 0 0 -8.83891e-05 
0.000484359 -0.000528297 0 -0.000528297 -0.00039597 0 0 0 -8.83891e-05 
0.000484359 -0.000528297 0 -0.000528297 -0.00039597 0 0 0 -8.83891e-05 
0.000484359 -0.000528297 0 -0.000528297 -0.00039597 0 0 0 -8.83891e-05 
0.00010197 0.000401146 0 0.000401146 -0.000115896 0 0 0 1.39257e-05 
0.00010197 0.000401146 0 0.000401146 -0.000115896 0 0 0 1.39257e-05 
0.00010197 0.000401146 0 0.000401146 -0.000115896 0 0 0 1.39257e-05 
0.00010197 0.000401146 0 0.000401146 -0.000115896 0 0 0 1.39257e-05 
-0.000126405 6.19305e-05 0 6.19305e-05 9.29814e-05 0 0 0 3.34235e-05 
-0.000126405 6.19305e-05 0 6.19305e-05 9.29814e-05 0 0 0 3.34235e-05 
-0.000126405 6.19305e-05 0 6.19305e-05 9.29814e-05 0 0 0 3.34235e-05 
-0.000126405 6.19305e-05 0 6.19305e-05 9.29814e-05 0 0 0 3.34235e-05 
-8.44318e-05 0.000386352 0 0.000386352 9.09493e-05 0 0 0 -6.51753e-06 
-8.44318e-05 0.000386352 0 0.000386352 9.09493e-05 0 0 0 -6.51753e-06 
-8.44318e-05 0.000386352 0 0.000386352 9.09493e-05 0 0 0 -6.51753e-06 
-8.44318e-05 0.000386352 0 0.000386352 9.09493e-05 0 0 0 -6.51753e-06 
0.000152376 -1.1725e-05 0 -1.1725e-05 -0.000197366 0 0 0 4.49906e-05 
0.000152376 -1.1725e-05 0 -1.1725e-05 -0.000197366 0 0 0 4.49906e-05 
0.000152376 -1.1725e-05 0 -1.1725e-05 -0.000197366 0 0 0 4.49906e-05 
0.000152376 -1.1725e-05 0 -1.1725e-05 -0.000197366 0 0 0 4.49906e-05 
0.000149578 -0.000110423 0 -0.000110423 -0.00014313 0 0 0 -6.44762e-06 
0.000149578 -0.000110423 0 -0.000110423 -0.00014313 0 0 0 -6.44762e-06 
0.000149578 -0.000110423 0 -0.000110423 -0.00014313 0 0 0 -6.44762e-06 
0.000149578 -0.000110423 0 -0.000110423 -0.00014313 0 0 0 -6.44762e-06 
-1.99766e-05 -0.00046862 0 -0.00046862 -3.82996e-06 0 0 0 2.38066e-05 
-1.99766e-05 -0.00046862 0 -0.00046862 -3.82996e-06 0 0 0 2.38066e-05 
-1.99766e-05 -0.00046862 0 -0.00046862 -3.82996e-06 0 0 0 2.38066e-05 
-1.99766e-05 -0.00046862 0 -0.00046862 -3.82996e-06 0 0 0 2.38066e-05 
-0.000694529 0.00010685 0 0.00010685 0.000724653 0 0 0 -3.01243e-05 
-0.000694529 0.00010685 0 0.00010685 0.000724653 0 0 0 -3.01243e-05 
-0.000694529 0.00010685 0 0.00010685 0.000724653 0 0 0 -3.01243e-05 
-0.000694529 0.00010685 0 0.00010685 0.000724653 0 0 0 -3.01243e-05 
0.000142114 0.000112264 0 0.000112264 -0.000141372 0 0 0 -7.42464e-07 
0.000142114 0.000112264 0 0.000112264 -0.000141372 0 0 0 -7.42464e-07 
0.000142114 0.000112264 0 0.000112264 -0.000141372 0 0 0 -7.42464e-07 
0.000142114 0.000112264 0 0.000112264 -0.000141372 0 0 0 -7.42464e-07 
-3.9587e-05 -0.000404075 0 -0.000404075 5.11078e-05 0 0 0 -1.15208e-05 
-3.9587e-05 -0.000404075 0 -0.000404075 5.11078e-05 0 0 0 -1.15208e-05 
-3.9587e-05 -0.000404075 0 -0.000404075 5.11078e-05 0 0 0 -1.15208e-05 
-3.9587e-05 -0.000404075 0 -0.000404075 5.11078e-05 0 0 0 -1.15208e-05 
4.32703e-05 0.000131454 0 0.000131454 1.1855e-06 0 0 0 -4.44558e-05 
4.32703e-05 0.000131454 0 0.000131454 1.1855e-06 0 0 0 -4.44558e-05 
4.32703e-05 0.000131454 0 0.000131454 1.1855e-06 0 0 0 -4.44558e-05 
4.32703e-05 0.000131454 0 0.000131454 1.1855e-06 0 0 0 -4.44558e-05 
0.000229804 0.000412933 0 0.000412933 -0.000261847 0 0 0 3.20432e-05 
0.000229804 0.000412933 0 0.000412933 -0.000261847 0 0 0 3.20432e-05 
0.000229804 0.000412933 0 0.000412933 -0.000261847 0 0 0 3.20432e-05 
0.000229804 0.000412933 0 0.000412933 -0.000261847 0 0 0 3.20432e-05 
-0.000965332 0.000154169 0 0.000154169 0.000959093 0 0 0 6.23876e-06 
-0.000965332 0.000154169 0 0.000154169 0.000959093 0 0 0 6.23876e-06 
-0.000965332 0.000154169 0 0.000154169 0.000959093 0 0 0 6.23876e-06 
-0.000965332 0.000154169 0 0.000154169 0.000959093 0 0 0 6.23876e-06 
-0.000324993 0.000148577 0 0.000148577 0.000288654 0 0 0 3.63393e-05 
-0.000324993 0.000148577 0 0.000148577 0.000288654 0 0 0 3.63393e-05 
-0.000324993 0.000148577 0 0.000148577 0.000288654 0 0 0 3.63393e-05 
-0.000324993 0.000148577 0 0.000148577 0.000288654 0 0 0 3.63393e-05 
-0.00075017 5.54996e-05 0 5.54996e-05 0.000730186 0 0 0 1.99842e-05 
-0.00075017 5.54996e-05 0 5.54996e-05 0.000730186 0 0 0 1.99842e-05 
-0.00075017 5.54996e-05 0 5.54996e-05 0.000730186 0 0 0 1.99842e-05 
-0.00075017 5.54996e-05 0 5.54996e-05 0.000730186 0 0 0 1.99842e-05 
0.000114688 0.000190328 0 0.000190328 -0.000102739 0 0 0 -1.19492e-05 
0.000114688 0.000190328 0 0.000190328 -0.000102739 0 0 0 -1.19492e-05 
0.000114688 0.000190328 0 0.000190328 -0.000102739 0 0 0 -1.19492e-05 
0.000114688 0.000190328 0 0.000190328 -0.000102739 0 0 0 -1.19492e-05 
-0.000895831 0.000191193 0 0.000191193 0.000813956 0 0 0 8.18748e-05 
-0.000895831 0.000191193 0 0.000191193 0.000813956 0 0 0 8.18748e-05 
-0.000895831 0.000191193 0 0.000191193 0.000813956 0 0 0 8.18748e-05 
-0.000895831 0.000191193 0 0.000191193 0.000813956 0 0 0 8.18748e-05 
-0.000554472 0.000225432 0 0.000225432 0.000573112 0 0 0 -1.86395e-05 
-0.000554472 0.000225432 0 0.000225432 0.000573112 0 0 0 -1.86395e-05 
-0.000554472 0.000225432 0 0.000225432 0.000573112 0 0 0 -1.86395e-05 
-0.000554472 0.000225432 0 0.000225432 0.000573112 0 0 0 -1.86395e-05 
-0.00039597 0.000528297 0 0.000528297 0.000484359 0 0 0 -8.83891e-05 
-0.00039597 0.000528297 0 0.000528297 0.000484359 0 0 0 -8.83891e-05 
-0.00039597 0.000528297 0 0.000528297 0.000484359 0 0 0 -8.83891e-05 
-0.00039597 0.000528297 0 0.000528297 0.000484359 0 0 0 -8.83891e-05 
9.29814e-05 -6.19305e-05 0 -6.19305e-05 -0.000126405 0 0 0 3.34235e-05 
9.29814e-05 -6.19305e-05 0 -6.19305e-05 -0.000126405 0 0 0 3.34235e-05 
9.29814e-05 -6.19305e-05 0 -6.19305e-05 -0.000126405 0 0 0 3.34235e-05 
9.29814e-05 -6.19305e-05 0 -6.19305e-05 -0.000126405 0 0 0 3.34235e-05 
-0.000115896 -0.000401146 0 -0.000401146 0.00010197 0 0 0 1.39257e-05 
-0.000115896 -0.000401146 0 -0.000401146 0.00010197 0 0 0 1.39257e-05 
-0.000115896 -0.000401146 0 -0.000401146 0.00010197 0 0 0 1.39257e-05 
-0.000115896 -0.000401146 0 -0.000401146 0.00010197 0 0 0 1.39257e-05 
9.09493e-05 -0.000386352 0 -0.000386352 -8.44318e-05 0 0 0 -6.51753e-06 
9.09493e-05 -0.000386352 0 -0.000386352 -8.44318e-05 0 0 0 -6.51753e-06 
9.09493e-05 -0.000386352 0 -0.000386352 -8.44318e-05 0 0 0 -6.51753e-06 
9.09493e-05 -0.000386352 0 -0.000386352 -8.44318e-05 0 0 0 -6.51753e-06 
-0.000197366 1.1725e-05 0 1.1725e-05 0.000152376 0 0 0 4.49906e-05 
-0.000197366 1.1725e-05 0 1.1725e-05 0.000152376 0 0 0 4.49906e-05 
-0.000197366 1.1725e-05 0 1.1725e-05 0.000152376 0 0 0 4.49906e-05 
-0.000197366 1.1725e-05 0 1.1725e-05 0.000152376 0 0 0 4.49906e-05 
0.0034101 -0.00209949 0 -0.00209949 -0.00296231 0 0 0 -0.000447788 
0.00312408 -0.000519859 0 -0.000519859 -0.00239027 0 0 0 -0.00073381 
0.00110658 -0.000991544 0 -0.000991544 -0.00139742 0 0 0 0.000290844 
0.000958265 -0.00017245 0 -0.00017245 -0.0011008 0 0 0 0.000142531 
0.00177983 0.000640203 0 0.000640203 -0.00200969 0 0 0 0.000229855 
0.00111642 0.000994815 0 0.000994815 -0.000682859 0 0 0 -0.000433558 
0.00100513 -0.000147295 0 -0.000147295 -0.00114322 0 0 0 0.000138089 
0.000661128 3.65833e-05 0 3.65833e-05 -0.000455215 0 0 0 -0.000205914 
0.00105054 -0.000387936 0 -0.000387936 -0.00064992 0 0 0 -0.000400619 
0.0013652 0.000214158 0 0.000214158 -0.00127925 0 0 0 -8.59538e-05 
0.000277506 6.65658e-05 0 6.65658e-05 -0.000263404 0 0 0 -1.41026e-05 
0.000440671 0.000378772 0 0.000378772 -0.000589733 0 0 0 0.000149062 
0.00164368 0.000978586 0 0.000978586 -0.00112516 0 0 0 -0.000518525 
0.00169717 0.00212536 0 0.00212536 -0.00123213 0 0 0 -0.000465036 
0.00014557 0.000503711 0 0.000503711 -0.000337471 0 0 0 0.000191901 
0.000173306 0.00109836 0 0.00109836 -0.000392943 0 0 0 0.000219637 
0.000905147 -0.000827117 0 -0.000827117 -0.000804644 0 0 0 -0.000100503 
0.000928469 -0.00030755 0 -0.00030755 -0.000851288 0 0 0 -7.71813e-05 
0.000470025 -0.000466668 0 -0.000466668 -0.000609821 0 0 0 0.000139796 
0.000485767 -0.000115956 0 -0.000115956 -0.000641306 0 0 0 0.000155539 
0.000856544 -0.000198126 0 -0.000198126 -0.000851971 0 0 0 -4.57332e-06 
0.000772086 0.000384016 0 0.000384016 -0.000683055 0 0 0 -8.90314e-05 
0.000324584 -9.12791e-05 0 -9.12791e-05 -0.000544818 0 0 0 0.000220234 
0.000267575 0.000301671 0 0.000301671 -0.000430799 0 0 0 0.000163224 
0.000446316 0.000300249 0 0.000300249 -0.00052017 0 0 0 7.38533e-05 
0.000356934 0.000417135 0 0.000417135 -0.000341405 0 0 0 -1.55293e-05 
0.000345018 0.000213103 0 0.000213103 -0.00046952 0 0 0 0.000124503 
0.000284684 0.000292002 0 0.000292002 -0.000348853 0 0 0 6.41689e-05 
0.000109426 0.000604616 0 0.000604616 -9.30746e-05 0 0 0 -1.63518e-05 
0.000140929 0.000653636 0 0.000653636 -0.00015608 0 0 0 1.51508e-05 
5.67054e-05 0.0006194 0 0.0006194 -5.1357e-05 0 0 0 -5.34842e-06 
7.79699e-05 0.000652488 0 0.000652488 -9.38859e-05 0 0 0 1.5916e-05 
0.00045411 -0.000269936 0 -0.000269936 -0.000547102 0 0 0 9.29915e-05 
0.000332655 -0.000162777 0 -0.000162777 -0.000304192 0 0 0 -2.84633e-05 
0.000324439 -0.000306739 0 -0.000306739 -0.000392895 0 0 0 6.8456e-05 
0.000232775 -0.000225864 0 -0.000225864 -0.000209566 0 0 0 -2.32085e-05 
0.000172488 -0.000132459 0 -0.000132459 -0.000210888 0 0 0 3.84003e-05 
4.25053e-05 7.92981e-05 0 7.92981e-05 4.90769e-05 0 0 0 -9.15822e-05 
2.10009e-06 -0.000176166 0 -0.000176166 -7.78713e-05 0 0 0 7.57712e-05 
-9.60004e-05 -1.63478e-05 0 -1.63478e-05 0.00011833 0 0 0 -2.23293e-05 
9.95846e-05 2.37934e-06 0 2.37934e-06 2.05373e-05 0 0 0 -0.000120122 
0.000255348 0.000172464 0 0.000172464 -0.00029099 0 0 0 3.56418e-05 
-1.16635e-05 0.000116996 0 0.000116996 7.61613e-05 0 0 0 -6.44978e-05 
0.000105895 0.000245362 0 0.000245362 -0.000158955 0 0 0 5.30603e-05 
3.16599e-05 0.000482944 0 0.000482944 -3.87326e-06 0 0 0 -2.77867e-05 
-6.55753e-05 0.000596956 0 0.000596956 0.000190597 0 0 0 -0.000125022 
-1.9063e-05 0.00038343 0 0.00038343 -1.42864e-05 0 0 0 3.33494e-05 
-9.24485e-05 0.000469477 0 0.000469477 0.000132485 0 0 0 -4.00361e-05 
0.000243772 -0.000278896 0 -0.000278896 -0.000234247 0 0 0 -9.52457e-06 
0.000184831 -6.20302e-05 0 -6.20302e-05 -0.000116365 0 0 0 -6.84655e-05 
0.000106645 -0.000228293 0 -0.000228293 -0.000130856 0 0 0 2.42104e-05 
5.93139e-05 -5.41431e-05 0 -5.41431e-05 -3.61928e-05 0 0 0 -2.31211e-05 
-3.85731e-05 -1.45128e-05 0 -1.45128e-05 1.14517e-05 0 0 0 2.71214e-05 
-8.80512e-05 1.52354e-06 0 1.52354e-06 0.000110408 0 0 0 -2.23567e-05 
-5.67417e-05 -4.05909e-05 0 -4.05909e-05 3.51544e-05 0 0 0 2.15873e-05 
-9.64742e-05 -2.77131e-05 0 -2.77131e-05 0.000114619 0 0 0 -1.81452e-05 
-3.19389e-06 0.000129817 0 0.000129817 6.79793e-05 0 0 0 -6.47854e-05 
9.41047e-05 6.97211e-05 0 6.97211e-05 -0.000126618 0 0 0 3.25131e-05 
2.83713e-05 0.000187311 0 0.000187311 5.21967e-05 0 0 0 -8.0568e-05 
0.000106505 0.000139052 0 0.000139052 -0.000104071 0 0 0 -2.43405e-06 
-3.78474e-05 0.000209139 0 0.000209139 2.33137e-05 0 0 0 1.45337e-05 
-0.000109405 0.000350145 0 0.000350145 0.000166429 0 0 0 -5.70241e-05 
-9.78157e-05 0.000139082 0 0.000139082 3.2156e-05 0 0 0 6.56597e-05 
-0.000155279 0.000252314 0 0.000252314 0.000147083 0 0 0 8.19634e-06 
-0.00296231 0.00209949 0 0.00209949 0.0034101 0 0 0 -0.000447788 
-0.00239027 0.000519859 0 0.000519859 0.00312408 0 0 0 -0.00073381 
-0.00139742 0.000991544 0 0.000991544 0.00110658 0 0 0 0.000290844 
-0.0011008 0.00017245 0 0.00017245 0.000958265 0 0 0 0.000142531 
-0.00200969 -0.000640203 0 -0.000640203 0.00177983 0 0 0 0.000229855 
-0.000682859 -0.000994815 0 -0.000994815 0.00111642 0 0 0 -0.000433558 
-0.00114322 0.000147295 0 0.000147295 0.00100513 0 0 0 0.000138089 
-0.000455215 -3.65833e-05 0 -3.65833e-05 0.000661128 0 0 0 -0.000205914 
-0.00064992 0.000387936 0 0.000387936 0.00105054 0 0 0 -0.000400619 
-0.00127925 -0.000214158 0 -0.000214158 0.0013652 0 0 0 -8.59538e-05 
-0.000263404 -6.65658e-05 0 -6.65658e-05 0.000277506 0 0 0 -1.41026e-05 
-0.000589733 -0.000378772 0 -0.000378772 0.000440671 0 0 0 0.000149062 
-0.00112516 -0.000978586 0 -0.000978586 0.00164368 0 0 0 -0.000518525 
-0.00123213 -0.00212536 0 -0.00212536 0.00169717 0 0 0 -0.000465036 
-0.000337471 -0.000503711 0 -0.000503711 0.00014557 0 0 0 0.000191901 
-0.000392943 -0.00109836 0 -0.00109836 0.000173306 0 0 0 0.000219637 
-0.000804644 0.000827117 0 0.000827117 0.000905147 0 0 0 -0.000100503 
-0.000851288 0.00030755 0 0.00030755 0.000928469 0 0 0 -7.71813e-05 
-0.000609821 0.000466668 0 0.000466668 0.000470025 0 0 0 0.000139796 
-0.000641306 0.000115956 0 0.000115956 0.000485767 0 0 0 0.000155539 
-0.000851971 0.000198126 0 0.000198126 0.000856544 0 0 0 -4.57332e-06 
-0.000683055 -0.000384016 0 -0.000384016 0.000772086 0 0 0 -8.90314e-05 
-0.000544818 9.12791e-05 0 9.12791e-05 0.000324584 0 0 0 0.000220234 
-0.000430799 -0.000301671 0 -0.000301671 0.000267575 0 0 0 0.000163224 
-0.00052017 -0.000300249 0 -0.000300249 0.000446316 0 0 0 7.38533e-05 
-0.000341405 -0.000417135 0 -0.000417135 0.000356934 0 0 0 -1.55293e-05 
-0.00046952 -0.000213103 0 -0.000213103 0.000345018 0 0 0 0.000124503 
-0.000348853 -0.000292002 0 -0.000292002 0.000284684 0 0 0 6.41689e-05 
-9.30746e-05 -0.000604616 0 -0.000604616 0.000109426 0 0 0 -1.63518e-05 
-0.00015608 -0.000653636 0 -0.000653636 0.000140929 0 0 0 1.51508e-05 
-5.1357e-05 -0.0006194 0 -0.0006194 5.67054e-05 0 0 0 -5.34842e-06 
-9.38859e-05 -0.000652488 0 -0.000652488 7.79699e-05 0 0 0 1.5916e-05 
-0.000547102 0.000269936 0 0.000269936 0.00045411 0 0 0 9.29915e-05 
-0.000304192 0.000162777 0 0.000162777 0.000332655 0 0 0 -2.84633e-05 
-0.000392895 0.000306739 0 0.000306739 0.000324439 0 0 0 6.8456e-05 
-0.000209566 0.000225864 0 0.000225864 0.000232775 0 0 0 -2.32085e-05 
-0.000210888 0.000132459 0 0.000132459 0.000172488 0 0 0 3.84003e-05 
4.90769e-05 -7.92981e-05 0 -7.92981e-05 4.25053e-05 0 0 0 -9.15822e-05 
-7.78713e-05 0.000176166 0 0.000176166 2.10009e-06 0 0 0 7.57712e-05 
0.00011833 1.63478e-05 0 1.63478e-05 -9.60004e-05 0 0 0 -2.23293e-05 
2.05373e-05 -2.37934e-06 0 -2.37934e-06 9.95846e-05 0 0 0 -0.000120122 
-0.00029099 -0.000172464 0 -0.000172464 0.000255348 0 0 0 3.56418e-05 
7.61613e-05 -0.000116996 0 -0.000116996 -1.16635e-05 0 0 0 -6.44978e-05 
-0.000158955 -0.000245362 0 -0.000245362 0.000105895 0 0 0 5.30603e-05 
-3.87326e-06 -0.000482944 0 -0.000482944 3.16599e-05 0 0 0 -2.77867e-05 
0.000190597 -0.000596956 0 -0.000596956 -6.55753e-05 0 0 0 -0.000125022 
-1.42864e-05 -0.00038343 0 -0.00038343 -1.9063e-05 0 0 0 3.33494e-05 
0.000132485 -0.000469477 0 -0.000469477 -9.24485e-05 0 0 0 -4.00361e-05 
-0.000234247 0.000278896 0 0.000278896 0.000243772 0 0 0 -9.52457e-06 
-0.000116365 6.20302e-05 0 6.20302e-05 0.000184831 0 0 0 -6.84655e-05 
-0.000130856 0.000228293 0 0.000228293 0.000106645 0 0 0 2.42104e-05 
-3.61928e-05 5.41431e-05 0 5.41431e-05 5.93139e-05 0 0 0 -2.31211e-05 
1.14517e-05 1.45128e-05 0 1.45128e-05 -3.85731e-05 0 0 0 2.71214e-05 
0.000110408 -1.52354e-06 0 -1.52354e-06 -8.80512e-05 0 0 0 -2.23567e-05 
3.51544e-05 4.05909e-05 0 4.05909e-05 -5.67417e-05 0 0 0 2.15873e-05 
0.000114619 2.77131e-05 0 2.77131e-05 -9.64742e-05 0 0 0 -1.81452e-05 
6.79793e-05 -0.000129817 0 -0.000129817 -3.19389e-06 0 0 0 -6.47854e-05 
-0.000126618 -6.97211e-05 0 -6.97211e-05 9.41047e-05 0 0 0 3.25131e-05 
5.21967e-05 -0.000187311 0 -0.000187311 2.83713e-05 0 0 0 -8.0568e-05 
-0.000104071 -0.000139052 0 -0.000139052 0.000106505 0 0 0 -2.43405e-06 
2.33137e-05 -0.000209139 0 -0.000209139 -3.78474e-05 0 0 0 1.45337e-05 
0.000166429 -0.000350145 0 -0.000350145 -0.000109405 0 0 0 -5.70241e-05 
3.2156e-05 -0.000139082 0 -0.000139082 -9.78157e-05 0 0 0 6.56597e-05 
0.000147083 -0.000252314 0 -0.000252314 -0.000155279 0 0 0 8.19634e-06 
0.0034101 -0.00209949 0 -0.00209949 -0.00296231 0 0 0 -0.000447788 
0.00312408 -0.000519859 0 -0.000519859 -0.00239027 0 0 0 -0.00073381 
0.00110658 -0.000991544 0 -0.000991544 -0.00139742 0 0 0 0.000290844 
0.000958265 -0.00017245 0 -0.00017245 -0.0011008 0 0 0 0.000142531 
0.00177983 0.000640203 0 0.000640203 -0.00200969 0 0 0 0.000229855 
0.00111642 0.000994815 0 0.000994815 -0.000682859 0 0 0 -0.000433558 
0.00100513 -0.000147295 0 -0.000147295 -0.00114322 0 0 0 0.000138089 
0.000661128 3.65833e-05 0 3.65833e-05 -0.000455215 0 0 0 -0.000205914 
0.00105054 -0.000387936 0 -0.000387936 -0.00064992 0 0 0 -0.000400619 
0.0013652 0.000214158 0 0.000214158 -0.00127925 0 0 0 -8.59538e-05 
0.000277506 6.65658e-05 0 6.65658e-05 -0.000263404 0 0 0 -1.41026e-05 
0.000440671 0.000378772 0 0.000378772 -0.000589733 0 0 0 0.000149062 
0.00164368 0.000978586 0 0.000978586 -0.00112516 0 0 0 -0.000518525 
0.00169717 0.00212536 0 0.00212536 -0.00123213 0 0 0 -0.000465036 
0.00014557 0.000503711 0 0.000503711 -0.000337471 0 0 0 0.000191901 
0.000173306 0.00109836 0 0.00109836 -0.000392943 0 0 0 0.000219637 
0.000905147 -0.000827117 0 -0.000827117 -0.000804644 0 0 0 -0.000100503 
0.000928469 -0.00030755 0 -0.00030755 -0.000851288 0 0 0 -7.71813e-05 
0.000470025 -0.000466668 0 -0.000466668 -0.000609821 0 0 0 0.000139796 
0.000485767 -0.000115956 0 -0.000115956 -0.000641306 0 0 0 0.000155539 
0.000856544 -0.000198126 0 -0.000198126 -0.000851971 0 0 0 -4.57332e-06 
0.000772086 0.000384016 0 0.000384016 -0.000683055 0 0 0 -8.90314e-05 
0.000324584 -9.12791e-05 0 -9.12791e-05 -0.000544818 0 0 0 0.000220234 
0.000267575 0.000301671 0 0.000301671 -0.000430799 0 0 0 0.000163224 
0.000446316 0.000300249 0 0.000300249 -0.00052017 0 0 0 7.38533e-05 
0.000356934 0.000417135 0 0.000417135 -0.000341405 0 0 0 -1.55293e-05 
0.000345018 0.000213103 0 0.000213103 -0.00046952 0 0 0 0.000124503 
0.000284684 0.000292002 0 0.000292002 -0.000348853 0 0 0 6.41689e-05 
0.000109426 0.000604616 0 0.000604616 -9.30746e-05 0 0 0 -1.63518e-05 
0.000140929 0.000653636 0 0.000653636 -0.00015608 0 0 0 1.51508e-05 
5.67054e-05 0.0006194 0 0.0006194 -5.1357e-05 0 0 0 -5.34842e-06 
7.79698e-05 0.000652488 0 0.000652488 -9.38859e-05 0 0 0 1.5916e-05 
0.00045411 -0.000269936 0 -0.000269936 -0.000547102 0 0 0 9.29915e-05 
0.000332655 -0.000162777 0 -0.000162777 -0.000304192 0 0 0 -2.84633e-05 
0.000324439 -0.000306739 0 -0.000306739 -0.000392895 0 0 0 6.8456e-05 
0.000232775 -0.000225864 0 -0.000225864 -0.000209566 0 0 0 -2.32085e-05 
0.000172488 -0.000132459 0 -0.000132459 -0.000210888 0 0 0 3.84003e-05 
4.25053e-05 7.92981e-05 0 7.92981e-05 4.90769e-05 0 0 0 -9.15822e-05 
2.10009e-06 -0.000176166 0 -0.000176166 -7.78713e-05 0 0 0 7.57712e-05 
-9.60004e-05 -1.63477e-05 0 -1.63477e-05 0.00011833 0 0 0 -2.23293e-05 
9.95846e-05 2.37934e-06 0 2.37934e-06 2.05373e-05 0 0 0 -0.000120122 
0.000255348 0.000172464 0 0.000172464 -0.00029099 0 0 0 3.56418e-05 
-1.16635e-05 0.000116996 0 0.000116996 7.61613e-05 0 0 0 -6.44978e-05 
0.000105895 0.000245362 0 0.000245362 -0.000158955 0 0 0 5.30603e-05 
3.16599e-05 0.000482944 0 0.000482944 -3.87326e-06 0 0 0 -2.77867e-05 
-6.55753e-05 0.000596956 0 0.000596956 0.000190597 0 0 0 -0.000125022 
-1.9063e-05 0.00038343 0 0.00038343 -1.42864e-05 0 0 0 3.33494e-05 
-9.24485e-05 0.000469477 0 0.000469477 0.000132485 0 0 0 -4.00361e-05 
0.000243772 -0.000278896 0 -0.000278896 -0.000234247 0 0 0 -9.52457e-06 
0.000184831 -6.20302e-05 0 -6.20302e-05 -0.000116365 0 0 0 -6.84655e-05 
0.000106645 -0.000228293 0 -0.000228293 -0.000130856 0 0 0 2.42104e-05 
5.93139e-05 -5.41431e-05 0 -5.41431e-05 -3.61928e-05 0 0 0 -2.31211e-05 
-3.85731e-05 -1.45128e-05 0 -1.45128e-05 1.14517e-05 0 0 0 2.71214e-05 
-8.80512e-05 1.52354e-06 0 1.52354e-06 0.000110408 0 0 0 -2.23567e-05 
-5.67417e-05 -4.05909e-05 0 -4.05909e-05 3.51544e-05 0 0 0 2.15873e-05 
-9.64742e-05 -2.77131e-05 0 -2.77131e-05 0.000114619 0 0 0 -1.81452e-05 
-3.19389e-06 0.000129817 0 0.000129817 6.79793e-05 0 0 0 -6.47854e-05 
9.41047e-05 6.97211e-05 0 6.97211e-05 -0.000126618 0 0 0 3.25131e-05 
2.83713e-05 0.000187311 0 0.000187311 5.21967e-05 0 0 0 -8.0568e-05 
0.000106505 0.000139052 0 0.000139052 -0.000104071 0 0 0 -2.43405e-06 
-3.78474e-05 0.000209139 0 0.000209139 2.33137e-05 0 0 0 1.45337e-05 
-0.000109405 0.000350145 0 0.000350145 0.000166429 0 0 0 -5.70241e-05 
-9.78157e-05 0.000139082 0 0.000139082 3.2156e-05 0 0 0 6.56597e-05 
-0.000155279 0.000252314 0 0.000252314 0.000147083 0 0 0 8.19634e-06 
-0.00296231 0.00209949 0 0.00209949 0.0034101 0 0 0 -0.000447788 
-0.00239027 0.000519859 0 0.000519859 0.00312408 0 0 0 -0.00073381 
-0.00139742 0.000991544 0 0.000991544 0.00110658 0 0 0 0.000290844 
-0.0011008 0.00017245 0 0.00017245 0.000958265 0 0 0 0.000142531 
-0.00200969 -0.000640203 0 -0.000640203 0.00177983 0 0 0 0.000229855 
-0.000682859 -0.000994815 0 -0.000994815 0.00111642 0 0 0 -0.000433558 
-0.00114322 0.000147295 0 0.000147295 0.00100513 0 0 0 0.000138089 
-0.000455215 -3.65833e-05 0 -3.65833e-05 0.000661128 0 0 0 -0.000205914 
-0.00064992 0.000387936 0 0.000387936 0.00105054 0 0 0 -0.000400619 
-0.00127925 -0.000214158 0 -0.000214158 0.0013652 0 0 0 -8.59538e-05 
-0.000263404 -6.65658e-05 0 -6.65658e-05 0.000277506 0 0 0 -1.41026e-05 
-0.000589733 -0.000378772 0 -0.000378772 0.000440671 0 0 0 0.000149062 
-0.00112516 -0.000978586 0 -0.000978586 0.00164368 0 0 0 -0.000518525 
-0.00123213 -0.00212536 0 -0.00212536 0.00169717 0 0 0 -0.000465036 
-0.000337471 -0.000503711 0 -0.000503711 0.00014557 0 0 0 0.000191901 
-0.000392943 -0.00109836 0 -0.00109836 0.000173306 0 0 0 0.000219637 
-0.000804644 0.000827117 0 0.000827117 0.000905147 0 0 0 -0.000100503 
-0.000851288 0.00030755 0 0.00030755 0.000928469 0 0 0 -7.71813e-05 
-0.000609821 0.000466668 0 0.000466668 0.000470025 0 0 0 0.000139796 
-0.000641306 0.000115956 0 0.000115956 0.000485767 0 0 0 0.000155539 
-0.000851971 0.000198126 0 0.000198126 0.000856544 0 0 0 -4.57332e-06 
-0.000683055 -0.000384016 0 -0.000384016 0.000772086 0 0 0 -8.90314e-05 
-0.000544818 9.12791e-05 0 9.12791e-05 0.000324584 0 0 0 0.000220234 
-0.000430799 -0.000301671 0 -0.000301671 0.000267575 0 0 0 0.000163224 
-0.00052017 -0.000300249 0 -0.000300249 0.000446316 0 0 0 7.38533e-05 
-0.000341405 -0.000417135 0 -0.000417135 0.000356934 0 0 0 -1.55293e-05 
-0.00046952 -0.000213103 0 -0.000213103 0.000345018 0 0 0 0.000124503 
-0.000348853 -0.000292002 0 -0.000292002 0.000284684 0 0 0 6.41689e-05 
-9.30746e-05 -0.000604616 0 -0.000604616 0.000109426 0 0 0 -1.63518e-05 
-0.00015608 -0.000653636 0 -0.000653636 0.000140929 0 0 0 1.51508e-05 
-5.1357e-05 -0.0006194 0 -0.0006194 5.67054e-05 0 0 0 -5.34842e-06 
-9.38859e-05 -0.000652488 0 -0.000652488 7.79698e-05 0 0 0 1.5916e-05 
-0.000547102 0.000269936 0 0.000269936 0.00045411 0 0 0 9.29915e-05 
-0.000304192 0.000162777 0 0.000162777 0.000332655 0 0 0 -2.84633e-05 
-0.000392895 0.000306739 0 0.000306739 0.000324439 0 0 0 6.8456e-05 
-0.000209566 0.000225864 0 0.000225864 0.000232775 0 0 0 -2.32085e-05 
-0.000210888 0.000132459 0 0.000132459 0.000172488 0 0 0 3.84003e-05 
4.90769e-05 -7.92981e-05 0 -7.92981e-05 4.25053e-05 0 0 0 -9.15822e-05 
-7.78713e-05 0.000176166 0 0.000176166 2.10009e-06 0 0 0 7.57712e-05 
0.00011833 1.63478e-05 0 1.63478e-05 -9.60004e-05 0 0 0 -2.23293e-05 
2.05373e-05 -2.37934e-06 0 -2.37934e-06 9.95846e-05 0 0 0 -0.000120122 
-0.00029099 -0.000172464 0 -0.000172464 0.000255348 0 0 0 3.56418e-05 
7.61613e-05 -0.000116996 0 -0.000116996 -1.16635e-05 0 0 0 -6.44978e-05 
-0.000158955 -0.000245362 0 -0.000245362 0.000105895 0 0 0 5.30603e-05 
-3.87326e-06 -0.000482944 0 -0.000482944 3.16599e-05 0 0 0 -2.77867e-05 
0.000190597 -0.000596956 0 -0.000596956 -6.55753e-05 0 0 0 -0.000125022 
-1.42864e-05 -0.00038343 0 -0.00038343 -1.9063e-05 0 0 0 3.33494e-05 
0.000132485 -0.000469477 0 -0.000469477 -9.24485e-05 0 0 0 -4.00361e-05 
-0.000234247 0.000278896 0 0.000278896 0.000243772 0 0 0 -9.52457e-06 
-0.000116365 6.20302e-05 0 6.20302e-05 0.000184831 0 0 0 -6.84655e-05 
-0.000130856 0.000228293 0 0.000228293 0.000106645 0 0 0 2.42104e-05 
-3.61928e-05 5.41431e-05 0 5.41431e-05 5.93139e-05 0 0 0 -2.31211e-05 
1.14517e-05 1.45128e-05 0 1.45128e-05 -3.85731e-05 0 0 0 2.71214e-05 
0.000110408 -1.52354e-06 0 -1.52354e-06 -8.80512e-05 0 0 0 -2.23567e-05 
3.51544e-05 4.05909e-05 0 4.05909e-05 -5.67417e-05 0 0 0 2.15873e-05 
0.000114619 2.77131e-05 0 2.77131e-05 -9.64742e-05 0 0 0 -1.81452e-05 
6.79793e-05 -0.000129817 0 -0.000129817 -3.19389e-06 0 0 0 -6.47854e-05 
-0.000126618 -6.97211e-05 0 -6.97211e-05 9.41047e-05 0 0 0 3.25131e-05 
5.21967e-05 -0.000187311 0 -0.000187311 2.83713e-05 0 0 0 -8.0568e-05 
-0.000104071 -0.000139052 0 -0.000139052 0.000106505 0 0 0 -2.43405e-06 
2.33137e-05 -0.000209139 0 -0.000209139 -3.78474e-05 0 0 0 1.45337e-05 
0.000166429 -0.000350145 0 -0.000350145 -0.000109405 0 0 0 -5.70241e-05 
3.2156e-05 -0.000139082 0 -0.000139082 -9.78157e-05 0 0 0 6.56597e-05 
0.000147083 -0.000252314 0 -0.000252314 -0.000155279 0 0 0 8.19634e-06 
0.002083 0.00477776 0 0.00477776 -0.00240387 0 0 0 0.000320878 
0.002083 0.00477776 0 0.00477776 -0.00240387 0 0 0 0.000320878 
0.002083 0.00477776 0 0.00477776 -0.00240387 0 0 0 0.000320878 
0.002083 0.00477776 0 0.00477776 -0.00240387 0 0 0 0.000320878 
-0.00240387 -0.00477776 0 -0.00477776 0.002083 0 0 0 0.000320878 
-0.00240387 -0.00477776 0 -0.00477776 0.002083 0 0 0 0.000320878 
-0.00240387 -0.00477776 0 -0.00477776 0.002083 0 0 0 0.000320878 
-0.00240387 -0.00477776 0 -0.00477776 0.002083 0 0 0 0.000320878 
0.002083 0.00477776 0 0.00477776 -0.00240387 0 0 0 0.000320878 
0.002083 0.00477776 0 0.00477776 -0.00240387 0 0 0 0.000320878 
0.002083 0.00477776 0 0.00477776 -0.00240387 0 0 0 0.000320878 
0.002083 0.00477776 0 0.00477776 -0.00240387 0 0 0 0.000320878 
-0.00240387 -0.00477776 0 -0.00477776 0.002083 0 0 0 0.000320878 
-0.00240387 -0.00477776 0 -0.00477776 0.002083 0 0 0 0.000320878 
-0.00240387 -0.00477776 0 -0.00477776 0.002083 0 0 0 0.000320878 
-0.00240387 -0.00477776 0 -0.00477776 0.002083 0 0 0 0.000320878 
0.0126316 0.000629445 0 0.000629445 -0.0128449 0 0 0 0.000213332 
0.0126316 0.000629445 0 0.000629445 -0.0128449 0 0 0 0.000213332 
0.0126316 0.000629445 0 0.000629445 -0.0128449 0 0 0 0.000213332 
0.0126316 0.000629445 0 0.000629445 -0.0128449 0 0 0 0.000213332 
0.0126316 0.000629445 0 0.000629445 -0.0128449 0 0 0 0.000213332 
0.0126316 0.000629445 0 0.000629445 -0.0128449 0 0 0 0.000213332 
0.0126316 0.000629445 0 0.000629445 -0.0128449 0 0 0 0.000213332 
0.0126316 0.000629445 0 0.000629445 -0.0128449 0 0 0 0.000213332 
-0.0128449 -0.000629445 0 -0.000629445 0.0126316 0 0 0 0.000213332 
-0.0128449 -0.000629445 0 -0.000629445 0.0126316 0 0 0 0.000213332 
-0.0128449 -0.000629445 0 -0.000629445 0.0126316 0 0 0 0.000213332 
-0.0128449 -0.000629445 0 -0.000629445 0.0126316 0 0 0 0.000213332 
-0.0128449 -0.000629445 0 -0.000629445 0.0126316 0 0 0 0.000213332 
-0.0128449 -0.000629445 0 -0.000629445 0.0126316 0 0 0 0.000213332 
-0.0128449 -0.000629445 0 -0.000629445 0.0126316 0 0 0 0.000213332 
-0.0128449 -0.000629445 0 -0.000629445 0.0126316 0 0 0 0.000213332 
0.096679 -0.0497226 0 -0.0497226 -0.0852726 0 0 0 -0.0114064 
0.096679 -0.0497226 0 -0.0497226 -0.0852726 0 0 0 -0.0114064 
0.096679 -0.0497226 0 -0.0497226 -0.0852726 0 0 0 -0.0114064 
0.096679 -0.0497226 0 -0.0497226 -0.0852726 0 0 0 -0.0114064 
-0.0852726 0.0497226 0 0.0497226 0.096679 0 0 0 -0.0114064 
-0.0852726 0.0497226 0 0.0497226 0.096679 0 0 0 -0.0114064 
-0.0852726 0.0497226 0 0.0497226 0.096679 0 0 0 -0.0114064 
-0.0852726 0.0497226 0 0.0497226 0.096679 0 0 0 -0.0114064 
0.096679 -0.0497226 0 -0.0497226 -0.0852726 0 0 0 -0.0114064 
0.096679 -0.0497226 0 -0.0497226 -0.0852726 0 0 0 -0.0114064 
0.096679 -0.0497226 0 -0.0497226 -0.0852726 0 0 0 -0.0114064 
0.096679 -0.0497226 0 -0.0497226 -0.0852726 0 0 0 -0.0114064 
-0.0852726 0.0497226 0 0.0497226 0.096679 0 0 0 -0.0114064 
-0.0852726 0.0497226 0 0.0497226 0.096679 0 0 0 -0.0114064 
-0.0852726 0.0497226 0 0.0497226 0.096679 0 0 0 -0.0114064 
-0.0852726 0.0497226 0 0.0497226 0.096679 0 0 0 -0.0114064 
0.0745548 0.0843225 0 0.0843225 -0.0603943 0 0 0 -0.0141605 
0.0745548 0.0843225 0 0.0843225 -0.0603943 0 0 0 -0.0141605 
0.0745548 0.0843225 0 0.0843225 -0.0603943 0 0 0 -0.0141605 
0.0745548 0.0843225 0 0.0843225 -0.0603943 0 0 0 -0.0141605 
-0.0603943 -0.0843225 0 -0.0843225 0.0745548 0 0 0 -0.0141605 
-0.0603943 -0.0843225 0 -0.0843225 0.0745548 0 0 0 -0.0141605 
-0.0603943 -0.0843225 0 -0.0843225 0.0745548 0 0 0 -0.0141605 
-0.0603943 -0.0843225 0 -0.0843225 0.0745548 0 0 0 -0.0141605 
-0.0603943 -0.0843225 0 -0.0843225 0.0745548 0 0 0 -0.0141605 
-0.0603943 -0.0843225 0 -0.0843225 0.0745548 0 0 0 -0.0141605 
-0.0603943 -0.0843225 0 -0.0843225 0.0745548 0 0 0 -0.0141605 
-0.0603943 -0.0843225 0 -0.0843225 0.0745548 0 0 0 -0.0141605 
0.0745548 0.0843225 0 0.0843225 -0.0603943 0 0 0 -0.0141605 
0.0745548 0.0843225 0 0.0843225 -0.0603943 0 0 0 -0.0141605 
0.0745548 0.0843225 0 0.0843225 -0.0603943 0 0 0 -0.0141605 
0.0745548 0.0843225 0 0.0843225 -0.0603943 0 0 0 -0.0141605 
0.00204311 -0.00283619 0 -0.00283619 -0.00243055 0 0 0 0.000387447 
0.00204311 -0.00283619 0 -0.00283619 -0.00243055 0 0 0 0.000387447 
0.00204311 -0.00283619 0 -0.00283619 -0.00243055 0 0 0 0.000387447 
0.00204311 -0.00283619 0 -0.00283619 -0.00243055 0 0 0 0.000387447 
-0.00243055 0.00283619 0 0.00283619 0.00204311 0 0 0 0.000387447 
-0.00243055 0.00283619 0 0.00283619 0.00204311 0 0 0 0.000387447 
-0.00243055 0.00283619 0 0.00283619 0.00204311 0 0 0 0.000387447 
-0.00243055 0.00283619 0 0.00283619 0.00204311 0 0 0 0.000387447 
0.00204311 -0.00283619 0 -0.00283619 -0.00243055 0 0 0 0.000387447 
0.00204311 -0.00283619 0 -0.00283619 -0.00243055 0 0 0 0.000387447 
0.00204311 -0.00283619 0 -0.00283619 -0.00243055 0 0 0 0.000387447 
0.00204311 -0.00283619 0 -0.00283619 -0.00243055 0 0 0 0.000387447 
-0.00243055 0.00283619 0 0.00283619 0.00204311 0 0 0 0.000387447 
-0.00243055 0.00283619 0 0.00283619 0.00204311 0 0 0 0.000387447 
-0.00243055 0.00283619 0 0.00283619 0.00204311 0 0 0 0.000387447 
-0.00243055 0.00283619 0 0.00283619 0.00204311 0 0 0 0.000387447 
0.0115064 -0.000455895 0 -0.000455895 -0.0110795 0 0 0 -0.000426995 
0.0115064 -0.000455895 0 -0.000455895 -0.0110795 0 0 0 -0.000426995 
0.0115064 -0.000455895 0 -0.000455895 -0.0110795 0 0 0 -0.000426995 
0.0115064 -0.000455895 0 -0.000455895 -0.0110795 0 0 0 -0.000426995 
-0.0110795 0.000455895 0 0.000455895 0.0115064 0 0 0 -0.000426995 
-0.0110795 0.000455895 0 0.000455895 0.0115064 0 0 0 -0.000426995 
-0.0110795 0.000455895 0 0.000455895 0.0115064 0 0 0 -0.000426995 
-0.0110795 0.000455895 0 0.000455895 0.0115064 0 0 0 -0.000426995 
0.0115064 -0.000455895 0 -0.000455895 -0.0110795 0 0 0 -0.000426995 
0.0115064 -0.000455895 0 -0.000455895 -0.0110795 0 0 0 -0.000426995 
0.0115064 -0.000455895 0 -0.000455895 -0.0110795 0 0 0 -0.000426995 
0.0115064 -0.000455895 0 -0.000455895 -0.0110795 0 0 0 -0.000426995 
-0.0110795 0.000455895 0 0.000455895 0.0115064 0 0 0 -0.000426995 
-0.0110795 0.000455895 0 0.000455895 0.0115064 0 0 0 -0.000426995 
-0.0110795 0.000455895 0 0.000455895 0.0115064 0 0 0 -0.000426995 
-0.0110795 0.000455895 0 0.000455895 0.0115064 0 0 0 -0.000426995 
0.0145984 -0.0189064 0 -0.0189064 -0.0158312 0 0 0 0.00123278 
0.0145984 -0.0189064 0 -0.0189064 -0.0158312 0 0 0 0.00123278 
0.0145984 -0.0189064 0 -0.0189064 -0.0158312 0 0 0 0.00123278 
0.0145984 -0.0189064 0 -0.0189064 -0.0158312 0 0 0 0.00123278 
-0.0158312 0.0189064 0 0.0189064 0.0145984 0 0 0 0.00123278 
-0.0158312 0.0189064 0 0.0189064 0.0145984 0 0 0 0.00123278 
-0.0158312 0.0189064 0 0.0189064 0.0145984 0 0 0 0.00123278 
-0.0158312 0.0189064 0 0.0189064 0.0145984 0 0 0 0.00123278 
-0.0158312 0.0189064 0 0.0189064 0.0145984 0 0 0 0.00123278 
-0.0158312 0.0189064 0 0.0189064 0.0145984 0 0 0 0.00123278 
-0.0158312 0.0189064 0 0.0189064 0.0145984 0 0 0 0.00123278 
-0.0158312 0.0189064 0 0.0189064 0.0145984 0 0 0 0.00123278 
0.0145984 -0.0189064 0 -0.0189064 -0.0158312 0 0 0 0.00123278 
0.0145984 -0.0189064 0 -0.0189064 -0.0158312 0 0 0 0.00123278 
0.0145984 -0.0189064 0 -0.0189064 -0.0158312 0 0 0 0.00123278 
0.0145984 -0.0189064 0 -0.0189064 -0.0158312 0 0 0 0.00123278 
0.0238202 -0.00180765 0 -0.00180765 -0.0248994 0 0 0 0.00107919 
0.0238202 -0.00180765 0 -0.00180765 -0.0248994 0 0 0 0.00107919 
0.0238202 -0.00180765 0 -0.00180765 -0.0248994 0 0 0 0.00107919 
0.0238202 -0.00180765 0 -0.00180765 -0.0248994 0 0 0 0.00107919 
-0.0248994 0.00180765 0 0.00180765 0.0238202 0 0 0 0.00107919 
-0.0248994 0.00180765 0 0.00180765 0.0238202 0 0 0 0.00107919 
-0.0248994 0.00180765 0 0.00180765 0.0238202 0 0 0 0.00107919 
-0.0248994 0.00180765 0 0.00180765 0.0238202 0 0 0 0.00107919 
0.0238202 -0.00180765 0 -0.00180765 -0.0248994 0 0 0 0.00107919 
0.0238202 -0.00180765 0 -0.00180765 -0.0248994 0 0 0 0.00107919 
0.0238202 -0.00180765 0 -0.00180765 -0.0248994 0 0 0 0.00107919 
0.0238202 -0.00180765 0 -0.00180765 -0.0248994 0 0 0 0.00107919 
-0.0248994 0.00180765 0 0.00180765 0.0238202 0 0 0 0.00107919 
-0.0248994 0.00180765 0 0.00180765 0.0238202 0 0 0 0.00107919 
-0.0248994 0.00180765 0 0.00180765 0.0238202 0 0 0 0.00107919 
-0.0248994 0.00180765 0 0.00180765 0.0238202 0 0 0 0.00107919 
0.00196017 -0.00341292 0 -0.00341292 -0.00228975 0 0 0 0.000329573 
0.00196017 -0.00341292 0 -0.00341292 -0.00228975 0 0 0 0.000329573 
0.00196017 -0.00341292 0 -0.00341292 -0.00228975 0 0 0 0.000329573 
0.00196017 -0.00341292 0 -0.00341292 -0.00228975 0 0 0 0.000329573 
-0.00228975 0.00341292 0 0.00341292 0.00196017 0 0 0 0.000329573 
-0.00228975 0.00341292 0 0.00341292 0.00196017 0 0 0 0.000329573 
-0.00228975 0.00341292 0 0.00341292 0.00196017 0 0 0 0.000329573 
-0.00228975 0.00341292 0 0.00341292 0.00196017 0 0 0 0.000329573 
-0.00228975 0.00341292 0 0.00341292 0.00196017 0 0 0 0.000329573 
-0.00228975 0.00341292 0 0.00341292 0.00196017 0 0 0 0.000329573 
-0.00228975 0.00341292 0 0.00341292 0.00196017 0 0 0 0.000329573 
-0.00228975 0.00341292 0 0.00341292 0.00196017 0 0 0 0.000329573 
0.00196017 -0.00341292 0 -0.00341292 -0.00228975 0 0 0 0.000329573 
0.00196017 -0.00341292 0 -0.00341292 -0.00228975 0 0 0 0.000329573 
0.00196017 -0.00341292 0 -0.00341292 -0.00228975 0 0 0 0.000329573 
0.00196017 -0.00341292 0 -0.00341292 -0.00228975 0 0 0 0.000329573 
-0.00562533 -0.0055911 0 -0.0055911 0.00498807 0 0 0 0.000637259 
-0.00562533 -0.0055911 0 -0.0055911 0.00498807 0 0 0 0.000637259 
-0.00562533 -0.0055911 0 -0.0055911 0.00498807 0 0 0 0.000637259 
-0.00562533 -0.0055911 0 -0.0055911 0.00498807 0 0 0 0.000637259 
0.00498807 0.0055911 0 0.0055911 -0.00562533 0 0 0 0.000637259 
0.00498807 0.0055911 0 0.0055911 -0.00562533 0 0 0 0.000637259 
0.00498807 0.0055911 0 0.0055911 -0.00562533 0 0 0 0.000637259 
0.00498807 0.0055911 0 0.0055911 -0.00562533 0 0 0 0.000637259 
-0.00562533 -0.0055911 0 -0.0055911 0.00498807 0 0 0 0.000637259 
-0.00562533 -0.0055911 0 -0.0055911 0.00498807 0 0 0 0.000637259 
-0.00562533 -0.0055911 0 -0.0055911 0.00498807 0 0 0 0.000637259 
-0.00562533 -0.0055911 0 -0.0055911 0.00498807 0 0 0 0.000637259 
0.00498807 0.0055911 0 0.0055911 -0.00562533 0 0 0 0.000637259 
0.00498807 0.0055911 0 0.0055911 -0.00562533 0 0 0 0.000637259 
0.00498807 0.0055911 0 0.0055911 -0.00562533 0 0 0 0.000637259 
0.00498807 0.0055911 0 0.0055911 -0.00562533 0 0 0 0.000637259 
-0.00237648 -0.00652882 0 -0.00652882 0.0017273 0 0 0 0.000649174 
-0.00237648 -0.00652882 0 -0.00652882 0.0017273 0 0 0 0.000649174 
-0.00237648 -0.00652882 0 -0.00652882 0.0017273 0 0 0 0.000649174 
-0.00237648 -0.00652882 0 -0.00652882 0.0017273 0 0 0 0.000649174 
-0.00237648 -0.00652882 0 -0.00652882 0.0017273 0 0 0 0.000649174 
-0.00237648 -0.00652882 0 -0.00652882 0.0017273 0 0 0 0.000649174 
-0.00237648 -0.00652882 0 -0.00652882 0.0017273 0 0 0 0.000649174 
-0.00237648 -0.00652882 0 -0.00652882 0.0017273 0 0 0 0.000649174 
0.0017273 0.00652882 0 0.00652882 -0.00237648 0 0 0 0.000649174 
0.0017273 0.00652882 0 0.00652882 -0.00237648 0 0 0 0.000649174 
0.0017273 0.00652882 0 0.00652882 -0.00237648 0 0 0 0.000649174 
0.0017273 0.00652882 0 0.00652882 -0.00237648 0 0 0 0.000649174 
0.0017273 0.00652882 0 0.00652882 -0.00237648 0 0 0 0.000649174 
0.0017273 0.00652882 0 0.00652882 -0.00237648 0 0 0 0.000649174 
0.0017273 0.00652882 0 0.00652882 -0.00237648 0 0 0 0.000649174 
0.0017273 0.00652882 0 0.00652882 -0.00237648 0 0 0 0.000649174 
-0.0307813 0.0872653 0 0.0872653 0.020475 0 0 0 0.0103063 
-0.0307813 0.0872653 0 0.0872653 0.020475 0 0 0 0.0103063 
-0.0307813 0.0872653 0 0.0872653 0.020475 0 0 0 0.0103063 
-0.0307813 0.0872653 0 0.0872653 0.020475 0 0 0 0.0103063 
0.020475 -0.0872653 0 -0.0872653 -0.0307813 0 0 0 0.0103063 
0.020475 -0.0872653 0 -0.0872653 -0.0307813 0 0 0 0.0103063 
0.020475 -0.0872653 0 -0.0872653 -0.0307813 0 0 0 0.0103063 
0.020475 -0.0872653 0 -0.0872653 -0.0307813 0 0 0 0.0103063 
-0.0307813 0.0872653 0 0.0872653 0.020475 0 0 0 0.0103063 
-0.0307813 0.0872653 0 0.0872653 0.020475 0 0 0 0.0103063 
-0.0307813 0.0872653 0 0.0872653 0.020475 0 0 0 0.0103063 
-0.0307813 0.0872653 0 0.0872653 0.020475 0 0 0 0.0103063 
0.020475 -0.0872653 0 -0.0872653 -0.0307813 0 0 0 0.0103063 
0.020475 -0.0872653 0 -0.0872653 -0.0307813 0 0 0 0.0103063 
0.020475 -0.0872653 0 -0.0872653 -0.0307813 0 0 0 0.0103063 
0.020475 -0.0872653 0 -0.0872653 -0.0307813 0 0 0 0.0103063 
-0.0470376 0.0111103 0 0.0111103 0.0385995 0 0 0 0.00843818 
-0.0470376 0.0111103 0 0.0111103 0.0385995 0 0 0 0.00843818 
-0.0470376 0.0111103 0 0.0111103 0.0385995 0 0 0 0.00843818 
-0.0470376 0.0111103 0 0.0111103 0.0385995 0 0 0 0.00843818 
0.0385995 -0.0111103 0 -0.0111103 -0.0470376 0 0 0 0.00843818 
0.0385995 -0.0111103 0 -0.0111103 -0.0470376 0 0 0 0.00843818 
0.0385995 -0.0111103 0 -0.0111103 -0.0470376 0 0 0 0.00843818 
0.0385995 -0.0111103 0 -0.0111103 -0.0470376 0 0 0 0.00843818 
0.0385995 -0.0111103 0 -0.0111103 -0.0470376 0 0 0 0.00843818 
0.0385995 -0.0111103 0 -0.0111103 -0.0470376 0 0 0 0.00843818 
0.0385995 -0.0111103 0 -0.0111103 -0.0470376 0 0 0 0.00843818 
0.0385995 -0.0111103 0 -0.0111103 -0.0470376 0 0 0 0.00843818 
-0.0470376 0.0111103 0 0.0111103 0.0385995 0 0 0 0.00843818 
-0.0470376 0.0111103 0 0.0111103 0.0385995 0 0 0 0.00843818 
-0.0470376 0.0111103 0 0.0111103 0.0385995 0 0 0 0.00843818 
-0.0470376 0.0111103 0 0.0111103 0.0385995 0 0 0 0.00843818 
0.0683232 0.033618 0 0.033618 -0.078924 0 0 0 0.0106009 
0.0683232 0.033618 0 0.033618 -0.078924 0 0 0 0.0106009 
0.0683232 0.033618 0 0.033618 -0.078924 0 0 0 0.0106009 
0.0683232 0.033618 0 0.033618 -0.078924 0 0 0 0.0106009 
-0.078924 -0.033618 0 -0.033618 0.0683232 0 0 0 0.0106009 
-0.078924 -0.033618 0 -0.033618 0.0683232 0 0 0 0.0106009 
-0.078924 -0.033618 0 -0.033618 0.0683232 0 0 0 0.0106009 
-0.078924 -0.033618 0 -0.033618 0.0683232 0 0 0 0.0106009 
-0.078924 -0.033618 0 -0.033618 0.0683232 0 0 0 0.0106009 
-0.078924 -0.033618 0 -0.033618 0.0683232 0 0 0 0.0106009 
-0.078924 -0.033618 0 -0.033618 0.0683232 0 0 0 0.0106009 
-0.078924 -0.033618 0 -0.033618 0.0683232 0 0 0 0.0106009 
0.0683232 0.033618 0 0.033618 -0.078924 0 0 0 0.0106009 
0.0683232 0.033618 0 0.033618 -0.078924 0 0 0 0.0106009 
0.0683232 0.033618 0 0.033618 -0.078924 0 0 0 0.0106009 
0.0683232 0.033618 0 0.033618 -0.078924 0 0 0 0.0106009 
0.0194382 0.0556735 0 0.0556735 -0.0293501 0 0 0 0.00991191 
0.0194382 0.0556735 0 0.0556735 -0.0293501 0 0 0 0.00991191 
0.0194382 0.0556735 0 0.0556735 -0.0293501 0 0 0 0.00991191 
0.0194382 0.0556735 0 0.0556735 -0.0293501 0 0 0 0.00991191 
-0.0293501 -0.0556735 0 -0.0556735 0.0194382 0 0 0 0.00991191 
-0.0293501 -0.0556735 0 -0.0556735 0.0194382 0 0 0 0.00991191 
-0.0293501 -0.0556735 0 -0.0556735 0.0194382 0 0 0 0.00991191 
-0.0293501 -0.0556735 0 -0.0556735 0.0194382 0 0 0 0.00991191 
-0.0293501 -0.0556735 0 -0.0556735 0.0194382 0 0 0 0.00991191 
-0.0293501 -0.0556735 0 -0.0556735 0.0194382 0 0 0 0.00991191 
-0.0293501 -0.0556735 0 -0.0556735 0.0194382 0 0 0 0.00991191 
-0.0293501 -0.0556735 0 -0.0556735 0.0194382 0 0 0 0.00991191 
0.0194382 0.0556735 0 0.0556735 -0.0293501 0 0 0 0.00991191 
0.0194382 0.0556735 0 0.0556735 -0.0293501 0 0 0 0.00991191 
0.0194382 0.0556735 0 0.0556735 -0.0293501 0 0 0 0.00991191 
0.0194382 0.0556735 0 0.0556735 -0.0293501 0 0 0 0.00991191 
0.100161 -0.0107153 0 -0.0107153 -0.0793244 0 0 0 -0.020837 
0.100161 -0.0107153 0 -0.0107153 -0.0793244 0 0 0 -0.020837 
0.100161 -0.0107153 0 -0.0107153 -0.0793244 0 0 0 -0.020837 
0.100161 -0.0107153 0 -0.0107153 -0.0793244 0 0 0 -0.020837 
-0.0793244 0.0107153 0 0.0107153 0.100161 0 0 0 -0.020837 
-0.0793244 0.0107153 0 0.0107153 0.100161 0 0 0 -0.020837 
-0.0793244 0.0107153 0 0.0107153 0.100161 0 0 0 -0.020837 
-0.0793244 0.0107153 0 0.0107153 0.100161 0 0 0 -0.020837 
-0.0793244 0.0107153 0 0.0107153 0.100161 0 0 0 -0.020837 
-0.0793244 0.0107153 0 0.0107153 0.100161 0 0 0 -0.020837 
-0.0793244 0.0107153 0 0.0107153 0.100161 0 0 0 -0.020837 
-0.0793244 0.0107153 0 0.0107153 0.100161 0 0 0 -0.020837 
0.100161 -0.0107153 0 -0.0107153 -0.0793244 0 0 0 -0.020837 
0.100161 -0.0107153 0 -0.0107153 -0.0793244 0 0 0 -0.020837 
0.100161 -0.0107153 0 -0.0107153 -0.0793244 0 0 0 -0.020837 
0.100161 -0.0107153 0 -0.0107153 -0.0793244 0 0 0 -0.020837 
-0.00653503 -0.0941507 0 -0.0941507 0.0228154 0 0 0 -0.0162803 
-0.00653503 -0.0941507 0 -0.0941507 0.0228154 0 0 0 -0.0162803 
-0.00653503 -0.0941507 0 -0.0941507 0.0228154 0 0 0 -0.0162803 
-0.00653503 -0.0941507 0 -0.0941507 0.0228154 0 0 0 -0.0162803 
0.0228154 0.0941507 0 0.0941507 -0.00653503 0 0 0 -0.0162803 
0.0228154 0.0941507 0 0.0941507 -0.00653503 0 0 0 -0.0162803 
0.0228154 0.0941507 0 0.0941507 -0.00653503 0 0 0 -0.0162803 
0.0228154 0.0941507 0 0.0941507 -0.00653503 0 0 0 -0.0162803 
-0.00653503 -0.0941507 0 -0.0941507 0.0228154 0 0 0 -0.0162803 
-0.00653503 -0.0941507 0 -0.0941507 0.0228154 0 0 0 -0.0162803 
-0.00653503 -0.0941507 0 -0.0941507 0.0228154 0 0 0 -0.0162803 
-0.00653503 -0.0941507 0 -0.0941507 0.0228154 0 0 0 -0.0162803 
0.0228154 0.0941507 0 0.0941507 -0.00653503 0 0 0 -0.0162803 
0.0228154 0.0941507 0 0.0941507 -0.00653503 0 0 0 -0.0162803 
0.0228154 0.0941507 0 0.0941507 -0.00653503 0 0 0 -0.0162803 
0.0228154 0.0941507 0 0.0941507 -0.00653503 0 0 0 -0.0162803 
0.0116372 -7.91945e-05 0 -7.91945e-05 -0.0114722 0 0 0 -0.00016497 
0.0116372 -7.91945e-05 0 -7.91945e-05 -0.0114722 0 0 0 -0.00016497 
0.0116372 -7.91945e-05 0 -7.91945e-05 -0.0114722 0 0 0 -0.00016497 
0.0116372 -7.91945e-05 0 -7.91945e-05 -0.0114722 0 0 0 -0.00016497 
-0.0114722 7.91945e-05 0 7.91945e-05 0.0116372 0 0 0 -0.00016497 
-0.0114722 7.91945e-05 0 7.91945e-05 0.0116372 0 0 0 -0.00016497 
-0.0114722 7.91945e-05 0 7.91945e-05 0.0116372 0 0 0 -0.00016497 
-0.0114722 7.91945e-05 0 7.91945e-05 0.0116372 0 0 0 -0.00016497 
-0.0114722 7.91945e-05 0 7.91945e-05 0.0116372 0 0 0 -0.00016497 
-0.0114722 7.91945e-05 0 7.91945e-05 0.0116372 0 0 0 -0.00016497 
-0.0114722 7.91945e-05 0 7.91945e-05 0.0116372 0 0 0 -0.00016497 
-0.0114722 7.91945e-05 0 7.91945e-05 0.0116372 0 0 0 -0.00016497 
0.0116372 -7.91945e-05 0 -7.91945e-05 -0.0114722 0 0 0 -0.00016497 
0.0116372 -7.91945e-05 0 -7.91945e-05 -0.0114722 0 0 0 -0.00016497 
0.0116372 -7.91945e-05 0 -7.91945e-05 -0.0114722 0 0 0 -0.00016497 
0.0116372 -7.91945e-05 0 -7.91945e-05 -0.0114722 0 0 0 -0.00016497 
0.00369279 -0.00332776 0 -0.00332776 -0.00357478 0 0 0 -0.00011801 
0.00369279 -0.00332776 0 -0.00332776 -0.00357478 0 0 0 -0.00011801 
0.00369279 -0.00332776 0 -0.00332776 -0.00357478 0 0 0 -0.00011801 
0.00369279 -0.00332776 0 -0.00332776 -0.00357478 0 0 0 -0.00011801 
-0.00357478 0.00332776 0 0.00332776 0.00369279 0 0 0 -0.00011801 
-0.00357478 0.00332776 0 0.00332776 0.00369279 0 0 0 -0.00011801 
-0.00357478 0.00332776 0 0.00332776 0.00369279 0 0 0 -0.00011801 
-0.00357478 0.00332776 0 0.00332776 0.00369279 0 0 0 -0.00011801 
0.00369279 -0.00332776 0 -0.00332776 -0.00357478 0 0 0 -0.00011801 
0.00369279 -0.00332776 0 -0.00332776 -0.00357478 0 0 0 -0.00011801 
0.00369279 -0.00332776 0 -0.00332776 -0.00357478 0 0 0 -0.00011801 
0.00369279 -0.00332776 0 -0.00332776 -0.00357478 0 0 0 -0.00011801 
-0.00357478 0.00332776 0 0.00332776 0.00369279 0 0 0 -0.00011801 
-0.00357478 0.00332776 0 0.00332776 0.00369279 0 0 0 -0.00011801 
-0.00357478 0.00332776 0 0.00332776 0.00369279 0 0 0 -0.00011801 
-0.00357478 0.00332776 0 0.00332776 0.00369279 0 0 0 -0.00011801 
0.00418169 -0.00296287 0 -0.00296287 -0.00403472 0 0 0 -0.000146975 
0.00418169 -0.00296287 0 -0.00296287 -0.00403472 0 0 0 -0.000146975 
0.00418169 -0.00296287 0 -0.00296287 -0.00403472 0 0 0 -0.000146975 
0.00418169 -0.00296287 0 -0.00296287 -0.00403472 0 0 0 -0.000146975 
-0.00403472 0.00296287 0 0.00296287 0.00418169 0 0 0 -0.000146975 
-0.00403472 0.00296287 0 0.00296287 0.00418169 0 0 0 -0.000146975 
-0.00403472 0.00296287 0 0.00296287 0.00418169 0 0 0 -0.000146975 
-0.00403472 0.00296287 0 0.00296287 0.00418169 0 0 0 -0.000146975 
-0.00403472 0.00296287 0 0.00296287 0.00418169 0 0 0 -0.000146975 
-0.00403472 0.00296287 0 0.00296287 0.00418169 0 0 0 -0.000146975 
-0.00403472 0.00296287 0 0.00296287 0.00418169 0 0 0 -0.000146975 
-0.00403472 0.00296287 0 0.00296287 0.00418169 0 0 0 -0.000146975 
0.00418169 -0.00296287 0 -0.00296287 -0.00403472 0 0 0 -0.000146975 
0.00418169 -0.00296287 0 -0.00296287 -0.00403472 0 0 0 -0.000146975 
0.00418169 -0.00296287 0 -0.00296287 -0.00403472 0 0 0 -0.000146975 
0.00418169 -0.00296287 0 -0.00296287 -0.00403472 0 0 0 -0.000146975 
-0.00206414 0.00360398 0 0.00360398 0.00109062 0 0 0 0.000973524 
-0.00206414 0.00360398 0 0.00360398 0.00109062 0 0 0 0.000973524 
-0.00206414 0.00360398 0 0.00360398 0.00109062 0 0 0 0.000973524 
-0.00206414 0.00360398 0 0.00360398 0.00109062 0 0 0 0.000973524 
-0.00206414 0.00360398 0 0.00360398 0.00109062 0 0 0 0.000973524 
-0.00206414 0.00360398 0 0.00360398 0.00109062 0 0 0 0.000973524 
-0.00206414 0.00360398 0 0.00360398 0.00109062 0 0 0 0.000973524 
-0.00206414 0.00360398 0 0.00360398 0.00109062 0 0 0 0.000973524 
0.00109062 -0.00360398 0 -0.00360398 -0.00206414 0 0 0 0.000973524 
0.00109062 -0.00360398 0 -0.00360398 -0.00206414 0 0 0 0.000973524 
0.00109062 -0.00360398 0 -0.00360398 -0.00206414 0 0 0 0.000973524 
0.00109062 -0.00360398 0 -0.00360398 -0.00206414 0 0 0 0.000973524 
0.00109062 -0.00360398 0 -0.00360398 -0.00206414 0 0 0 0.000973524 
0.00109062 -0.00360398 0 -0.00360398 -0.00206414 0 0 0 0.000973524 
0.00109062 -0.00360398 0 -0.00360398 -0.00206414 0 0 0 0.000973524 
0.00109062 -0.00360398 0 -0.00360398 -0.00206414 0 0 0 0.000973524 
0.0024003 0.00291587 0 0.00291587 -0.00229663 0 0 0 -0.000103677 
0.0024003 0.00291587 0 0.00291587 -0.00229663 0 0 0 -0.000103677 
0.0024003 0.00291587 0 0.00291587 -0.00229663 0 0 0 -0.000103677 
0.0024003 0.00291587 0 0.00291587 -0.00229663 0 0 0 -0.000103677 
-0.00229663 -0.00291587 0 -0.00291587 0.0024003 0 0 0 -0.000103677 
-0.00229663 -0.00291587 0 -0.00291587 0.0024003 0 0 0 -0.000103677 
-0.00229663 -0.00291587 0 -0.00291587 0.0024003 0 0 0 -0.000103677 
-0.00229663 -0.00291587 0 -0.00291587 0.0024003 0 0 0 -0.000103677 
0.0024003 0.00291587 0 0.00291587 -0.00229663 0 0 0 -0.000103677 
0.0024003 0.00291587 0 0.00291587 -0.00229663 0 0 0 -0.000103677 
0.0024003 0.00291587 0 0.00291587 -0.00229663 0 0 0 -0.000103677 
0.0024003 0.00291587 0 0.00291587 -0.00229663 0 0 0 -0.000103677 
-0.00229663 -0.00291587 0 -0.00291587 0.0024003 0 0 0 -0.000103677 
-0.00229663 -0.00291587 0 -0.00291587 0.0024003 0 0 0 -0.000103677 
-0.00229663 -0.00291587 0 -0.00291587 0.0024003 0 0 0 -0.000103677 
-0.00229663 -0.00291587 0 -0.00291587 0.0024003 0 0 0 -0.000103677 
0.00316865 -0.00696764 0 -0.00696764 -0.00268849 0 0 0 -0.000480159 
0.00316865 -0.00696764 0 -0.00696764 -0.00268849 0 0 0 -0.000480159 
0.00316865 -0.00696764 0 -0.00696764 -0.00268849 0 0 0 -0.000480159 
0.00316865 -0.00696764 0 -0.00696764 -0.00268849 0 0 0 -0.000480159 
-0.00268849 0.00696764 0 0.00696764 0.00316865 0 0 0 -0.000480159 
-0.00268849 0.00696764 0 0.00696764 0.00316865 0 0 0 -0.000480159 
-0.00268849 0.00696764 0 0.00696764 0.00316865 0 0 0 -0.000480159 
-0.00268849 0.00696764 0 0.00696764 0.00316865 0 0 0 -0.000480159 
0.00316865 -0.00696764 0 -0.00696764 -0.00268849 0 0 0 -0.000480159 
0.00316865 -0.00696764 0 -0.00696764 -0.00268849 0 0 0 -0.000480159 
0.00316865 -0.00696764 0 -0.00696764 -0.00268849 0 0 0 -0.000480159 
0.00316865 -0.00696764 0 -0.00696764 -0.00268849 0 0 0 -0.000480159 
-0.00268849 0.00696764 0 0.00696764 0.00316865 0 0 0 -0.000480159 
-0.00268849 0.00696764 0 0.00696764 0.00316865 0 0 0 -0.000480159 
-0.00268849 0.00696764 0 0.00696764 0.00316865 0 0 0 -0.000480159 
-0.00268849 0.00696764 0 0.00696764 0.00316865 0 0 0 -0.000480159 
0.00878196 0.00205502 0 0.00205502 -0.0093281 0 0 0 0.000546141 
0.00878196 0.00205502 0 0.00205502 -0.0093281 0 0 0 0.000546141 
0.00878196 0.00205502 0 0.00205502 -0.0093281 0 0 0 0.000546141 
0.00878196 0.00205502 0 0.00205502 -0.0093281 0 0 0 0.000546141 
-0.0093281 -0.00205502 0 -0.00205502 0.00878196 0 0 0 0.000546141 
-0.0093281 -0.00205502 0 -0.00205502 0.00878196 0 0 0 0.000546141 
-0.0093281 -0.00205502 0 -0.00205502 0.00878196 0 0 0 0.000546141 
-0.0093281 -0.00205502 0 -0.00205502 0.00878196 0 0 0 0.000546141 
-0.0093281 -0.00205502 0 -0.00205502 0.00878196 0 0 0 0.000546141 
-0.0093281 -0.00205502 0 -0.00205502 0.00878196 0 0 0 0.000546141 
-0.0093281 -0.00205502 0 -0.00205502 0.00878196 0 0 0 0.000546141 
-0.0093281 -0.00205502 0 -0.00205502 0.00878196 0 0 0 0.000546141 
0.00878196 0.00205502 0 0.00205502 -0.0093281 0 0 0 0.000546141 
0.00878196 0.00205502 0 0.00205502 -0.0093281 0 0 0 0.000546141 
0.00878196 0.00205502 0 0.00205502 -0.0093281 0 0 0 0.000546141 
0.00878196 0.00205502 0 0.00205502 -0.0093281 0 0 0 0.000546141 
-0.000520828 -0.00468249 0 -0.00468249 0.00129897 0 0 0 -0.000778146 
-0.000520828 -0.00468249 0 -0.00468249 0.00129897 0 0 0 -0.000778146 
-0.000520828 -0.00468249 0 -0.00468249 0.00129897 0 0 0 -0.000778146 
-0.000520828 -0.00468249 0 -0.00468249 0.00129897 0 0 0 -0.000778146 
-0.000520828 -0.00468249 0 -0.00468249 0.00129897 0 0 0 -0.000778146 
-0.000520828 -0.00468249 0 -0.00468249 0.00129897 0 0 0 -0.000778146 
-0.000520828 -0.00468249 0 -0.00468249 0.00129897 0 0 0 -0.000778146 
-0.000520828 -0.00468249 0 -0.00468249 0.00129897 0 0 0 -0.000778146 
0.00129897 0.00468249 0 0.00468249 -0.000520828 0 0 0 -0.000778146 
0.00129897 0.00468249 0 0.00468249 -0.000520828 0 0 0 -0.000778146 
0.00129897 0.00468249 0 0.00468249 -0.000520828 0 0 0 -0.000778146 
0.00129897 0.00468249 0 0.00468249 -0.000520828 0 0 0 -0.000778146 
0.00129897 0.00468249 0 0.00468249 -0.000520828 0 0 0 -0.000778146 
0.00129897 0.00468249 0 0.00468249 -0.000520828 0 0 0 -0.000778146 
0.00129897 0.00468249 0 0.00468249 -0.000520828 0 0 0 -0.000778146 
0.00129897 0.00468249 0 0.00468249 -0.000520828 0 0 0 -0.000778146 
0.0148787 -0.0185355 0 -0.0185355 -0.0164425 0 0 0 0.00156383 
0.0148787 -0.0185355 0 -0.0185355 -0.0164425 0 0 0 0.00156383 
0.0148787 -0.0185355 0 -0.0185355 -0.0164425 0 0 0 0.00156383 
0.0148787 -0.0185355 0 -0.0185355 -0.0164425 0 0 0 0.00156383 
-0.0164425 0.0185355 0 0.0185355 0.0148787 0 0 0 0.00156383 
-0.0164425 0.0185355 0 0.0185355 0.0148787 0 0 0 0.00156383 
-0.0164425 0.0185355 0 0.0185355 0.0148787 0 0 0 0.00156383 
-0.0164425 0.0185355 0 0.0185355 0.0148787 0 0 0 0.00156383 
-0.0164425 0.0185355 0 0.0185355 0.0148787 0 0 0 0.00156383 
-0.0164425 0.0185355 0 0.0185355 0.0148787 0 0 0 0.00156383 
-0.0164425 0.0185355 0 0.0185355 0.0148787 0 0 0 0.00156383 
-0.0164425 0.0185355 0 0.0185355 0.0148787 0 0 0 0.00156383 
0.0148787 -0.0185355 0 -0.0185355 -0.0164425 0 0 0 0.00156383 
0.0148787 -0.0185355 0 -0.0185355 -0.0164425 0 0 0 0.00156383 
0.0148787 -0.0185355 0 -0.0185355 -0.0164425 0 0 0 0.00156383 
0.0148787 -0.0185355 0 -0.0185355 -0.0164425 0 0 0 0.00156383 
0.00645727 -0.0245088 0 -0.0245088 -0.00646061 0 0 0 3.34411e-06 
0.00645727 -0.0245088 0 -0.0245088 -0.00646061 0 0 0 3.34411e-06 
0.00645727 -0.0245088 0 -0.0245088 -0.00646061 0 0 0 3.34411e-06 
0.00645727 -0.0245088 0 -0.0245088 -0.00646061 0 0 0 3.34411e-06 
-0.00646061 0.0245088 0 0.0245088 0.00645727 0 0 0 3.3441e-06 
-0.00646061 0.0245088 0 0.0245088 0.00645727 0 0 0 3.3441e-06 
-0.00646061 0.0245088 0 0.0245088 0.00645727 0 0 0 3.3441e-06 
-0.00646061 0.0245088 0 0.0245088 0.00645727 0 0 0 3.3441e-06 
-0.00646061 0.0245088 0 0.0245088 0.00645727 0 0 0 3.3441e-06 
-0.00646061 0.0245088 0 0.0245088 0.00645727 0 0 0 3.3441e-06 
-0.00646061 0.0245088 0 0.0245088 0.00645727 0 0 0 3.3441e-06 
-0.00646061 0.0245088 0 0.0245088 0.00645727 0 0 0 3.3441e-06 
0.00645727 -0.0245088 0 -0.0245088 -0.00646061 0 0 0 3.3441e-06 
0.00645727 -0.0245088 0 -0.0245088 -0.00646061 0 0 0 3.3441e-06 
0.00645727 -0.0245088 0 -0.0245088 -0.00646061 0 0 0 3.3441e-06 
0.00645727 -0.0245088 0 -0.0245088 -0.00646061 0 0 0 3.3441e-06 
-0.0282304 -0.00515212 0 -0.00515212 0.0291544 0 0 0 -0.000924006 
-0.0282304 -0.00515212 0 -0.00515212 0.0291544 0 0 0 -0.000924006 
-0.0282304 -0.00515212 0 -0.00515212 0.0291544 0 0 0 -0.000924006 
-0.0282304 -0.00515212 0 -0.00515212 0.0291544 0 0 0 -0.000924006 
0.0291544 0.00515212 0 0.00515212 -0.0282304 0 0 0 -0.000924006 
0.0291544 0.00515212 0 0.00515212 -0.0282304 0 0 0 -0.000924006 
0.0291544 0.00515212 0 0.00515212 -0.0282304 0 0 0 -0.000924006 
0.0291544 0.00515212 0 0.00515212 -0.0282304 0 0 0 -0.000924006 
-0.0282304 -0.00515212 0 -0.00515212 0.0291544 0 0 0 -0.000924006 
-0.0282304 -0.00515212 0 -0.00515212 0.0291544 0 0 0 -0.000924006 
-0.0282304 -0.00515212 0 -0.00515212 0.0291544 0 0 0 -0.000924006 
-0.0282304 -0.00515212 0 -0.00515212 0.0291544 0 0 0 -0.000924006 
0.0291544 0.00515212 0 0.00515212 -0.0282304 0 0 0 -0.000924006 
0.0291544 0.00515212 0 0.00515212 -0.0282304 0 0 0 -0.000924006 
0.0291544 0.00515212 0 0.00515212 -0.0282304 0 0 0 -0.000924006 
0.0291544 0.00515212 0 0.00515212 -0.0282304 0 0 0 -0.000924006 
-0.0262606 -0.00594973 0 -0.00594973 0.0257281 0 0 0 0.00053247 
-0.0262606 -0.00594973 0 -0.00594973 0.0257281 0 0 0 0.00053247 
-0.0262606 -0.00594973 0 -0.00594973 0.0257281 0 0 0 0.00053247 
-0.0262606 -0.00594973 0 -0.00594973 0.0257281 0 0 0 0.00053247 
-0.0262606 -0.00594973 0 -0.00594973 0.0257281 0 0 0 0.00053247 
-0.0262606 -0.00594973 0 -0.00594973 0.0257281 0 0 0 0.00053247 
-0.0262606 -0.00594973 0 -0.00594973 0.0257281 0 0 0 0.00053247 
-0.0262606 -0.00594973 0 -0.00594973 0.0257281 0 0 0 0.00053247 
0.0257281 0.00594973 0 0.00594973 -0.0262606 0 0 0 0.00053247 
0.0257281 0.00594973 0 0.00594973 -0.0262606 0 0 0 0.00053247 
0.0257281 0.00594973 0 0.00594973 -0.0262606 0 0 0 0.00053247 
0.0257281 0.00594973 0 0.00594973 -0.0262606 0 0 0 0.00053247 
0.0257281 0.00594973 0 0.00594973 -0.0262606 0 0 0 0.00053247 
0.0257281 0.00594973 0 0.00594973 -0.0262606 0 0 0 0.00053247 
0.0257281 0.00594973 0 0.00594973 -0.0262606 0 0 0 0.00053247 
0.0257281 0.00594973 0 0.00594973 -0.0262606 0 0 0 0.00053247 
-0.0237988 0.0174996 0 0.0174996 0.0262842 0 0 0 -0.00248536 
-0.0237988 0.0174996 0 0.0174996 0.0262842 0 0 0 -0.00248536 
-0.0237988 0.0174996 0 0.0174996 0.0262842 0 0 0 -0.00248536 
-0.0237988 0.0174996 0 0.0174996 0.0262842 0 0 0 -0.00248536 
0.0262842 -0.0174996 0 -0.0174996 -0.0237988 0 0 0 -0.00248536 
0.0262842 -0.0174996 0 -0.0174996 -0.0237988 0 0 0 -0.00248536 
0.0262842 -0.0174996 0 -0.0174996 -0.0237988 0 0 0 -0.00248536 
0.0262842 -0.0174996 0 -0.0174996 -0.0237988 0 0 0 -0.00248536 
-0.0237988 0.0174996 0 0.0174996 0.0262842 0 0 0 -0.00248536 
-0.0237988 0.0174996 0 0.0174996 0.0262842 0 0 0 -0.00248536 
-0.0237988 0.0174996 0 0.0174996 0.0262842 0 0 0 -0.00248536 
-0.0237988 0.0174996 0 0.0174996 0.0262842 0 0 0 -0.00248536 
0.0262842 -0.0174996 0 -0.0174996 -0.0237988 0 0 0 -0.00248536 
0.0262842 -0.0174996 0 -0.0174996 -0.0237988 0 0 0 -0.00248536 
0.0262842 -0.0174996 0 -0.0174996 -0.0237988 0 0 0 -0.00248536 
0.0262842 -0.0174996 0 -0.0174996 -0.0237988 0 0 0 -0.00248536 
0.0326801 0.00440188 0 0.00440188 -0.031839 0 0 0 -0.000841121 
0.0326801 0.00440188 0 0.00440188 -0.031839 0 0 0 -0.000841121 
0.0326801 0.00440188 0 0.00440188 -0.031839 0 0 0 -0.000841121 
0.0326801 0.00440188 0 0.00440188 -0.031839 0 0 0 -0.000841121 
-0.031839 -0.00440188 0 -0.00440188 0.0326801 0 0 0 -0.000841121 
-0.031839 -0.00440188 0 -0.00440188 0.0326801 0 0 0 -0.000841121 
-0.031839 -0.00440188 0 -0.00440188 0.0326801 0 0 0 -0.000841121 
-0.031839 -0.00440188 0 -0.00440188 0.0326801 0 0 0 -0.000841121 
-0.031839 -0.00440188 0 -0.00440188 0.0326801 0 0 0 -0.000841121 
-0.031839 -0.00440188 0 -0.00440188 0.0326801 0 0 0 -0.000841121 
-0.031839 -0.00440188 0 -0.00440188 0.0326801 0 0 0 -0.000841121 
-0.031839 -0.00440188 0 -0.00440188 0.0326801 0 0 0 -0.000841121 
0.0326801 0.00440188 0 0.00440188 -0.031839 0 0 0 -0.000841121 
0.0326801 0.00440188 0 0.00440188 -0.031839 0 0 0 -0.000841121 
0.0326801 0.00440188 0 0.00440188 -0.031839 0 0 0 -0.000841121 
0.0326801 0.00440188 0 0.00440188 -0.031839 0 0 0 -0.000841121 
-0.003948 -0.0487433 0 -0.0487433 0.00360944 0 0 0 0.000338566 
-0.003948 -0.0487433 0 -0.0487433 0.00360944 0 0 0 0.000338566 
-0.003948 -0.0487433 0 -0.0487433 0.00360944 0 0 0 0.000338566 
-0.003948 -0.0487433 0 -0.0487433 0.00360944 0 0 0 0.000338566 
0.00360944 0.0487433 0 0.0487433 -0.003948 0 0 0 0.000338566 
0.00360944 0.0487433 0 0.0487433 -0.003948 0 0 0 0.000338566 
0.00360944 0.0487433 0 0.0487433 -0.003948 0 0 0 0.000338566 
0.00360944 0.0487433 0 0.0487433 -0.003948 0 0 0 0.000338566 
-0.003948 -0.0487433 0 -0.0487433 0.00360944 0 0 0 0.000338566 
-0.003948 -0.0487433 0 -0.0487433 0.00360944 0 0 0 0.000338566 
-0.003948 -0.0487433 0 -0.0487433 0.00360944 0 0 0 0.000338566 
-0.003948 -0.0487433 0 -0.0487433 0.00360944 0 0 0 0.000338566 
0.00360944 0.0487433 0 0.0487433 -0.003948 0 0 0 0.000338566 
0.00360944 0.0487433 0 0.0487433 -0.003948 0 0 0 0.000338566 
0.00360944 0.0487433 0 0.0487433 -0.003948 0 0 0 0.000338566 
0.00360944 0.0487433 0 0.0487433 -0.003948 0 0 0 0.000338566 
0.0364223 0.0369814 0 0.0369814 -0.0356981 0 0 0 -0.000724224 
0.0364223 0.0369814 0 0.0369814 -0.0356981 0 0 0 -0.000724224 
0.0364223 0.0369814 0 0.0369814 -0.0356981 0 0 0 -0.000724224 
0.0364223 0.0369814 0 0.0369814 -0.0356981 0 0 0 -0.000724224 
-0.0356981 -0.0369814 0 -0.0369814 0.0364223 0 0 0 -0.000724224 
-0.0356981 -0.0369814 0 -0.0369814 0.0364223 0 0 0 -0.000724224 
-0.0356981 -0.0369814 0 -0.0369814 0.0364223 0 0 0 -0.000724224 
-0.0356981 -0.0369814 0 -0.0369814 0.0364223 0 0 0 -0.000724224 
0.0364223 0.0369814 0 0.0369814 -0.0356981 0 0 0 -0.000724224 
0.0364223 0.0369814 0 0.0369814 -0.0356981 0 0 0 -0.000724224 
0.0364223 0.0369814 0 0.0369814 -0.0356981 0 0 0 -0.000724224 
0.0364223 0.0369814 0 0.0369814 -0.0356981 0 0 0 -0.000724224 
-0.0356981 -0.0369814 0 -0.0369814 0.0364223 0 0 0 -0.000724224 
-0.0356981 -0.0369814 0 -0.0369814 0.0364223 0 0 0 -0.000724224 
-0.0356981 -0.0369814 0 -0.0369814 0.0364223 0 0 0 -0.000724224 
-0.0356981 -0.0369814 0 -0.0369814 0.0364223 0 0 0 -0.000724224 
0.00372344 -0.00383211 0 -0.00383211 -0.00340407 0 0 0 -0.000319362 
0.00372344 -0.00383211 0 -0.00383211 -0.00340407 0 0 0 -0.000319362 
0.00372344 -0.00383211 0 -0.00383211 -0.00340407 0 0 0 -0.000319362 
0.00372344 -0.00383211 0 -0.00383211 -0.00340407 0 0 0 -0.000319362 
-0.00340407 0.00383211 0 0.00383211 0.00372344 0 0 0 -0.000319362 
-0.00340407 0.00383211 0 0.00383211 0.00372344 0 0 0 -0.000319362 
-0.00340407 0.00383211 0 0.00383211 0.00372344 0 0 0 -0.000319362 
-0.00340407 0.00383211 0 0.00383211 0.00372344 0 0 0 -0.000319362 
0.00372344 -0.00383211 0 -0.00383211 -0.00340407 0 0 0 -0.000319362 
0.00372344 -0.00383211 0 -0.00383211 -0.00340407 0 0 0 -0.000319362 
0.00372344 -0.00383211 0 -0.00383211 -0.00340407 0 0 0 -0.000319362 
0.00372344 -0.00383211 0 -0.00383211 -0.00340407 0 0 0 -0.000319362 
-0.00340407 0.00383211 0 0.00383211 0.00372344 0 0 0 -0.000319362 
-0.00340407 0.00383211 0 0.00383211 0.00372344 0 0 0 -0.000319362 
-0.00340407 0.00383211 0 0.00383211 0.00372344 0 0 0 -0.000319362 
-0.00340407 0.00383211 0 0.00383211 0.00372344 0 0 0 -0.000319362 

